Cu  O Ba  C  H                          
   1.00000000000000     
    15.3360000000000003    0.0000000000000000    0.0000000000000000
   -12.7799999999999940   22.1356093207302536    0.0000000000000000
     0.0000000000000000    0.0000000000000000   30.0000000000000000
   Cu   O    Ba   C    H 
   180    36    36     2     1
Selective dynamics
Direct
  0.0055039483156650  0.0412001651691719  0.1389527675470305   T   T   T
  0.1169500000000028  0.0748900000000035  0.0695600000000027   F   F   F
  0.0613999999999990  0.0082200000000014  0.0000000000000000   F   F   F
  0.1725807496121138  0.0412419247153253  0.1390578565019553   T   T   T
  0.2836199999999991  0.0748900000000035  0.0695600000000027   F   F   F
  0.2280599999999993  0.0082200000000014  0.0000000000000000   F   F   F
  0.3390086515780616  0.0400801964059199  0.1392105801696520   T   T   T
  0.4502799999999993  0.0748900000000035  0.0695600000000027   F   F   F
  0.3947300000000027  0.0082200000000014  0.0000000000000000   F   F   F
  0.5057013131661298  0.0405063482940154  0.1392044732986267   T   T   T
  0.6169500000000028  0.0748900000000035  0.0695600000000027   F   F   F
  0.5613999999999990  0.0082200000000014  0.0000000000000000   F   F   F
  0.6717992913172800  0.0404966249512260  0.1393068518781478   T   T   T
  0.7836199999999991  0.0748900000000035  0.0695600000000027   F   F   F
  0.7280599999999993  0.0082200000000014  0.0000000000000000   F   F   F
  0.8380150781511644  0.0404952510076120  0.1391552095662363   T   T   T
  0.9502799999999993  0.0748900000000035  0.0695600000000027   F   F   F
  0.8947300000000027  0.0082200000000014  0.0000000000000000   F   F   F
  0.0009361929034725  0.1388616510684848  0.1385316924521055   T   T   T
  0.1169500000000028  0.1748899999999978  0.0695600000000027   F   F   F
  0.0613999999999990  0.1082200000000029  0.0000000000000000   F   F   F
  0.1712524934222950  0.1398526032053599  0.1408898473494454   T   T   T
  0.2836199999999991  0.1748899999999978  0.0695600000000027   F   F   F
  0.2280599999999993  0.1082200000000029  0.0000000000000000   F   F   F
  0.3398856199312256  0.1381519572662031  0.1381913161074182   T   T   T
  0.4502799999999993  0.1748899999999978  0.0695600000000027   F   F   F
  0.3947300000000027  0.1082200000000029  0.0000000000000000   F   F   F
  0.5048825503284091  0.1388744252580358  0.1391916427717148   T   T   T
  0.6169500000000028  0.1748899999999978  0.0695600000000027   F   F   F
  0.5613999999999990  0.1082200000000029  0.0000000000000000   F   F   F
  0.6712864343005083  0.1392378490753979  0.1392089958153233   T   T   T
  0.7836199999999991  0.1748899999999978  0.0695600000000027   F   F   F
  0.7280599999999993  0.1082200000000029  0.0000000000000000   F   F   F
  0.8368089101186981  0.1394193197845311  0.1391227349117955   T   T   T
  0.9502799999999993  0.1748899999999978  0.0695600000000027   F   F   F
  0.8947300000000027  0.1082200000000029  0.0000000000000000   F   F   F
  0.0015496371021095  0.2387533345058135  0.1380186332078706   T   T   T
  0.1169500000000028  0.2748899999999992  0.0695600000000027   F   F   F
  0.0613999999999990  0.2082199999999972  0.0000000000000000   F   F   F
  0.1630076441636920  0.2367155057280266  0.1406104168706499   T   T   T
  0.2836199999999991  0.2748899999999992  0.0695600000000027   F   F   F
  0.2280599999999993  0.2082199999999972  0.0000000000000000   F   F   F
  0.3441388018421622  0.2365471595372824  0.1392363880767143   T   T   T
  0.4502799999999993  0.2748899999999992  0.0695600000000027   F   F   F
  0.3947300000000027  0.2082199999999972  0.0000000000000000   F   F   F
  0.5076999334210697  0.2381881858041881  0.1379499046474028   T   T   T
  0.6169500000000028  0.2748899999999992  0.0695600000000027   F   F   F
  0.5613999999999990  0.2082199999999972  0.0000000000000000   F   F   F
  0.6699179255817242  0.2369015142641985  0.1385615444164999   T   T   T
  0.7836199999999991  0.2748899999999992  0.0695600000000027   F   F   F
  0.7280599999999993  0.2082199999999972  0.0000000000000000   F   F   F
  0.8359124306437947  0.2382177477540170  0.1385788307099280   T   T   T
  0.9502799999999993  0.2748899999999992  0.0695600000000027   F   F   F
  0.8947300000000027  0.2082199999999972  0.0000000000000000   F   F   F
  0.9991874451619108  0.3356395679411228  0.1401924426544671   T   T   T
  0.1169500000000028  0.3748900000000006  0.0695600000000027   F   F   F
  0.0613999999999990  0.3082199999999986  0.0000000000000000   F   F   F
  0.1681514296661683  0.3385498363226373  0.1394897922393145   T   T   T
  0.2836199999999991  0.3748900000000006  0.0695600000000027   F   F   F
  0.2280599999999993  0.3082199999999986  0.0000000000000000   F   F   F
  0.3338194778974813  0.3361402591867983  0.1412664876487796   T   T   T
  0.4502799999999993  0.3748900000000006  0.0695600000000027   F   F   F
  0.3947300000000027  0.3082199999999986  0.0000000000000000   F   F   F
  0.5049617969965540  0.3365497346293683  0.1397424357630669   T   T   T
  0.6169500000000028  0.3748900000000006  0.0695600000000027   F   F   F
  0.5613999999999990  0.3082199999999986  0.0000000000000000   F   F   F
  0.6698589815743672  0.3371831249485737  0.1400759807617467   T   T   T
  0.7836199999999991  0.3748900000000006  0.0695600000000027   F   F   F
  0.7280599999999993  0.3082199999999986  0.0000000000000000   F   F   F
  0.8342242033293468  0.3372220278669876  0.1398315202949683   T   T   T
  0.9502799999999993  0.3748900000000006  0.0695600000000027   F   F   F
  0.8947300000000027  0.3082199999999986  0.0000000000000000   F   F   F
  0.0064359367472825  0.4426358076296729  0.1384959770480490   T   T   T
  0.1169500000000028  0.4748900000000020  0.0695600000000027   F   F   F
  0.0613999999999990  0.4082200000000000  0.0000000000000000   F   F   F
  0.1738848469168651  0.4434865984413425  0.1403245476847757   T   T   T
  0.2836199999999991  0.4748900000000020  0.0695600000000027   F   F   F
  0.2280599999999993  0.4082200000000000  0.0000000000000000   F   F   F
  0.3412881142813638  0.4420748637029497  0.1376477933407180   T   T   T
  0.4502799999999993  0.4748900000000020  0.0695600000000027   F   F   F
  0.3947300000000027  0.4082200000000000  0.0000000000000000   F   F   F
  0.5063586456535553  0.4419215904169770  0.1385515238034997   T   T   T
  0.6169500000000028  0.4748900000000020  0.0695600000000027   F   F   F
  0.5613999999999990  0.4082200000000000  0.0000000000000000   F   F   F
  0.6745460618381768  0.4443073762413216  0.1403697932040582   T   T   T
  0.7836199999999991  0.4748900000000020  0.0695600000000027   F   F   F
  0.7280599999999993  0.4082200000000000  0.0000000000000000   F   F   F
  0.8387204178442011  0.4411866126140758  0.1386379967900878   T   T   T
  0.9502799999999993  0.4748900000000020  0.0695600000000027   F   F   F
  0.8947300000000027  0.4082200000000000  0.0000000000000000   F   F   F
  0.0096367716615097  0.5426094784642302  0.1406326493347457   T   T   T
  0.1169500000000028  0.5748900000000035  0.0695600000000027   F   F   F
  0.0613999999999990  0.5082200000000014  0.0000000000000000   F   F   F
  0.1756435703274867  0.5434700380904084  0.1357810851885878   T   T   T
  0.2836199999999991  0.5748900000000035  0.0695600000000027   F   F   F
  0.2280599999999993  0.5082200000000014  0.0000000000000000   F   F   F
  0.3409078909713504  0.5441173991395031  0.1386146448527654   T   T   T
  0.4502799999999993  0.5748900000000035  0.0695600000000027   F   F   F
  0.3947300000000027  0.5082200000000014  0.0000000000000000   F   F   F
  0.5100352517893056  0.5427279456113979  0.1405457592838035   T   T   T
  0.6169500000000028  0.5748900000000035  0.0695600000000027   F   F   F
  0.5613999999999990  0.5082200000000014  0.0000000000000000   F   F   F
  0.6747909993711932  0.5438102825291399  0.1340450137440319   T   T   T
  0.7836199999999991  0.5748900000000035  0.0695600000000027   F   F   F
  0.7280599999999993  0.5082200000000014  0.0000000000000000   F   F   F
  0.8397140105678640  0.5434333779554129  0.1393936049398971   T   T   T
  0.9502799999999993  0.5748900000000035  0.0695600000000027   F   F   F
  0.8947300000000027  0.5082200000000014  0.0000000000000000   F   F   F
  0.0111451077698904  0.6477892760155020  0.1446533976048500   T   T   T
  0.1169500000000028  0.6748899999999978  0.0695600000000027   F   F   F
  0.0613999999999990  0.6082200000000029  0.0000000000000000   F   F   F
  0.1758507552144503  0.6445559771677490  0.1395753640568214   T   T   T
  0.2836199999999991  0.6748899999999978  0.0695600000000027   F   F   F
  0.2280599999999993  0.6082200000000029  0.0000000000000000   F   F   F
  0.3420009936173531  0.6452166384288873  0.1391520120647686   T   T   T
  0.4502799999999993  0.6748899999999978  0.0695600000000027   F   F   F
  0.3947300000000027  0.6082200000000029  0.0000000000000000   F   F   F
  0.5114775933306496  0.6479686022092551  0.1445862824615774   T   T   T
  0.6169500000000028  0.6748899999999978  0.0695600000000027   F   F   F
  0.5613999999999990  0.6082200000000029  0.0000000000000000   F   F   F
  0.6757456175339410  0.6446409755374511  0.1397199289372610   T   T   T
  0.7836199999999991  0.6748899999999978  0.0695600000000027   F   F   F
  0.7280599999999993  0.6082200000000029  0.0000000000000000   F   F   F
  0.8415866272079670  0.6447565746004635  0.1394591938226644   T   T   T
  0.9502799999999993  0.6748899999999978  0.0695600000000027   F   F   F
  0.8947300000000027  0.6082200000000029  0.0000000000000000   F   F   F
  0.0104676167449016  0.7462897257791103  0.1349045942953160   T   T   T
  0.1169500000000028  0.7748899999999992  0.0695600000000027   F   F   F
  0.0613999999999990  0.7082199999999972  0.0000000000000000   F   F   F
  0.1754294314877752  0.7461489767624826  0.1344663898682387   T   T   T
  0.2836199999999991  0.7748899999999992  0.0695600000000027   F   F   F
  0.2280599999999993  0.7082199999999972  0.0000000000000000   F   F   F
  0.3416026789627399  0.7446357840485790  0.1401192980597851   T   T   T
  0.4502799999999993  0.7748899999999992  0.0695600000000027   F   F   F
  0.3947300000000027  0.7082199999999972  0.0000000000000000   F   F   F
  0.5109955320766254  0.7462247657018517  0.1348596274202465   T   T   T
  0.6169500000000028  0.7748899999999992  0.0695600000000027   F   F   F
  0.5613999999999990  0.7082199999999972  0.0000000000000000   F   F   F
  0.6760932831697993  0.7463365072896191  0.1345173901942573   T   T   T
  0.7836199999999991  0.7748899999999992  0.0695600000000027   F   F   F
  0.7280599999999993  0.7082199999999972  0.0000000000000000   F   F   F
  0.8419150974163043  0.7447199738123436  0.1397576880403824   T   T   T
  0.9502799999999993  0.7748899999999992  0.0695600000000027   F   F   F
  0.8947300000000027  0.7082199999999972  0.0000000000000000   F   F   F
  0.0071401855849975  0.8432163731229834  0.1401363608034902   T   T   T
  0.1169500000000028  0.8748900000000006  0.0695600000000027   F   F   F
  0.0613999999999990  0.8082199999999986  0.0000000000000000   F   F   F
  0.1743782186341532  0.8437684195917070  0.1403961572617083   T   T   T
  0.2836199999999991  0.8748900000000006  0.0695600000000027   F   F   F
  0.2280599999999993  0.8082199999999986  0.0000000000000000   F   F   F
  0.3405840113277796  0.8431167039391532  0.1400370454098917   T   T   T
  0.4502799999999993  0.8748900000000006  0.0695600000000027   F   F   F
  0.3947300000000027  0.8082199999999986  0.0000000000000000   F   F   F
  0.5070271871223718  0.8429735025882340  0.1399737844868706   T   T   T
  0.6169500000000028  0.8748900000000006  0.0695600000000027   F   F   F
  0.5613999999999990  0.8082199999999986  0.0000000000000000   F   F   F
  0.6744911150923165  0.8437824885593207  0.1404310876335010   T   T   T
  0.7836199999999991  0.8748900000000006  0.0695600000000027   F   F   F
  0.7280599999999993  0.8082199999999986  0.0000000000000000   F   F   F
  0.8408599104003702  0.8432817656505425  0.1402292102893738   T   T   T
  0.9502799999999993  0.8748900000000006  0.0695600000000027   F   F   F
  0.8947300000000027  0.8082199999999986  0.0000000000000000   F   F   F
  0.0065084688750437  0.9421607262526128  0.1393748492512765   T   T   T
  0.1169500000000028  0.9748900000000020  0.0695600000000027   F   F   F
  0.0613999999999990  0.9082200000000000  0.0000000000000000   F   F   F
  0.1725606159631097  0.9419271715464691  0.1395514375891340   T   T   T
  0.2836199999999991  0.9748900000000020  0.0695600000000027   F   F   F
  0.2280599999999993  0.9082200000000000  0.0000000000000000   F   F   F
  0.3397597925347794  0.9415911814190456  0.1395642417258349   T   T   T
  0.4502799999999993  0.9748900000000020  0.0695600000000027   F   F   F
  0.3947300000000027  0.9082200000000000  0.0000000000000000   F   F   F
  0.5060340362006917  0.9415327666890152  0.1393339771953269   T   T   T
  0.6169500000000028  0.9748900000000020  0.0695600000000027   F   F   F
  0.5613999999999990  0.9082200000000000  0.0000000000000000   F   F   F
  0.6724704319681196  0.9416211099040774  0.1395862568524607   T   T   T
  0.7836199999999991  0.9748900000000020  0.0695600000000027   F   F   F
  0.7280599999999993  0.9082200000000000  0.0000000000000000   F   F   F
  0.8398011155981852  0.9418526073740744  0.1395103119281017   T   T   T
  0.9502799999999993  0.9748900000000020  0.0695600000000027   F   F   F
  0.8947300000000027  0.9082200000000000  0.0000000000000000   F   F   F
  0.2712770627097752  0.3853532255545757  0.1860253823960444   T   T   T
  0.5518980425716240  0.4011689234358899  0.1838063105947232   T   T   T
  0.7821260899406314  0.3754958678454361  0.1858068326448886   T   T   T
  0.0501887940307202  0.4012322120679573  0.1835359696962029   T   T   T
  0.1067986331702609  0.4720126535584713  0.2970449924151913   T   T   T
  0.2578870460322275  0.5132812936254381  0.1937888403810211   T   T   T
  0.3509454396441750  0.4681694740331890  0.2976176461571941   T   T   T
  0.5071885304586359  0.5082178459299816  0.1996252552338058   T   T   T
  0.6056717418481009  0.4681812755327348  0.2957289689472548   T   T   T
  0.7644395697668338  0.5079006889701754  0.1959472312081056   T   T   T
  0.8535759016671399  0.4679127810502441  0.2977214512877155   T   T   T
  0.0120085513058302  0.5109356399652670  0.2001710177546853   T   T   T
  0.1033630550542393  0.6142207015197954  0.3069062357308185   T   T   T
  0.2842177341265120  0.6794087303919104  0.1947511477052146   T   T   T
  0.1969631570213937  0.5777150086992724  0.4092358543080698   T   T   T
  0.3499511308805896  0.6141960432075559  0.3060661100801216   T   T   T
  0.5289125370275141  0.6750761942136349  0.2100782439806742   T   T   T
  0.4455022497546006  0.5774737850535395  0.4068286454730036   T   T   T
  0.6035746303438503  0.6132316701566026  0.3045090992303051   T   T   T
  0.7814961606673209  0.6755667816959339  0.1949001191427120   T   T   T
  0.6948737469207166  0.5751637052385441  0.4072667629347868   T   T   T
  0.8497029723927954  0.6134100994052046  0.3054053158687282   T   T   T
  0.0336029117771675  0.6759793272099530  0.2098142731685473   T   T   T
  0.9472928621420331  0.5773078823504940  0.4073592601929255   T   T   T
  0.1196307691322932  0.7820048565435019  0.3049645014951627   T   T   T
  0.1934575878352801  0.7229052227478436  0.4169326954912436   T   T   T
  0.3694551762622529  0.7800937517781992  0.3054992974918563   T   T   T
  0.4400625996468249  0.7212243406339756  0.4188988874341878   T   T   T
  0.6200451671835990  0.7813911324141897  0.3053415382796369   T   T   T
  0.6895684479435532  0.7189195821959393  0.4174884454120404   T   T   T
  0.8707165879355557  0.7803015476017705  0.3049978416060926   T   T   T
  0.9372342108061755  0.7167848944013109  0.4198290030972415   T   T   T
  0.1954789789644713  0.8808896564085319  0.4061875688718732   T   T   T
  0.4446454853999126  0.8806684031754559  0.4094625816758670   T   T   T
  0.6950813408385497  0.8805635348365595  0.4072971500905750   T   T   T
  0.9438935182524880  0.8798918855533816  0.4065012665369737   T   T   T
  0.2648290626753447  0.5121582820488424  0.3480239758099382   T   T   T
  0.1796427323475216  0.4125177152741369  0.2441563670775693   T   T   T
  0.5138154468148605  0.5091698159500261  0.3445703747948419   T   T   T
  0.4229698809870963  0.4056927781068948  0.2393499391483575   T   T   T
  0.7625728371879217  0.5101263289005687  0.3465954125045003   T   T   T
  0.6821900534548234  0.4090661408552290  0.2422924272168252   T   T   T
  0.0144739398240873  0.5113913372009060  0.3474237248897940   T   T   T
  0.9325261370982155  0.4120273992470478  0.2423864973254765   T   T   T
  0.0998849622757330  0.6121308502622940  0.4533396892276441   T   T   T
  0.2759908057557627  0.6720113968909569  0.3473358036389273   T   T   T
  0.1873864857437830  0.5723424627379151  0.2395192470496323   T   T   T
  0.3506945422652031  0.6113343672325204  0.4539779342855355   T   T   T
  0.5254896537440229  0.6702921590326313  0.3440569745681951   T   T   T
  0.4319517765740417  0.5666695119005163  0.2398633363065148   T   T   T
  0.5976768644367413  0.6089105514006447  0.4524121001758487   T   T   T
  0.7746566585065138  0.6703348191297892  0.3461800147701257   T   T   T
  0.6838460803956160  0.5662424354389608  0.2373312402265106   T   T   T
  0.8470993302179105  0.6079162104643250  0.4536853387974114   T   T   T
  0.0240424091386486  0.6711211965544543  0.3447493525958239   T   T   T
  0.9349444270903187  0.5681619128700302  0.2409052468687840   T   T   T
  0.1118103390683231  0.7779164046045711  0.4519667101789115   T   T   T
  0.2944970238064331  0.8392998249453932  0.3381570353499807   T   T   T
  0.2108775451545117  0.7418833979560412  0.2336225228909154   T   T   T
  0.3635123158875303  0.7785684715385749  0.4552420368914168   T   T   T
  0.5465530826233544  0.8414075365481796  0.3361702321642303   T   T   T
  0.4587522599058905  0.7398773128818161  0.2342501105282734   T   T   T
  0.6136795271976097  0.7774731446573625  0.4524361160633247   T   T   T
  0.7975834744872020  0.8417206427176540  0.3345753796031671   T   T   T
  0.7069297326713693  0.7366934830733782  0.2336345455010631   T   T   T
  0.8623378562279049  0.7768481764013171  0.4521624507003401   T   T   T
  0.0500393727302367  0.8457158689445576  0.3312851877673014   T   T   T
  0.9553542088111880  0.7365295598414102  0.2340510830312562   T   T   T
  0.1211522229918260  0.9429750835746031  0.4346248341606265   T   T   T
  0.3722972360843785  0.9445833159431052  0.4360336406260862   T   T   T
  0.6229239412195303  0.9441056938081268  0.4361190349769017   T   T   T
  0.8723200079257851  0.9434789896348241  0.4352504273350887   T   T   T
  0.2900865072287807  0.2723532011068083  0.1868571984592443   T   T   T
  0.2341556092533071  0.2134233265128317  0.1922198081393379   T   T   T
  0.2084069519102682  0.1820323617573188  0.2202893331117006   T   T   T
 
  0.00000000E+00  0.00000000E+00  0.00000000E+00
  0.00000000E+00  0.00000000E+00  0.00000000E+00
  0.00000000E+00  0.00000000E+00  0.00000000E+00
  0.00000000E+00  0.00000000E+00  0.00000000E+00
  0.00000000E+00  0.00000000E+00  0.00000000E+00
  0.00000000E+00  0.00000000E+00  0.00000000E+00
  0.00000000E+00  0.00000000E+00  0.00000000E+00
  0.00000000E+00  0.00000000E+00  0.00000000E+00
  0.00000000E+00  0.00000000E+00  0.00000000E+00
  0.00000000E+00  0.00000000E+00  0.00000000E+00
  0.00000000E+00  0.00000000E+00  0.00000000E+00
  0.00000000E+00  0.00000000E+00  0.00000000E+00
  0.00000000E+00  0.00000000E+00  0.00000000E+00
  0.00000000E+00  0.00000000E+00  0.00000000E+00
  0.00000000E+00  0.00000000E+00  0.00000000E+00
  0.00000000E+00  0.00000000E+00  0.00000000E+00
  0.00000000E+00  0.00000000E+00  0.00000000E+00
  0.00000000E+00  0.00000000E+00  0.00000000E+00
  0.00000000E+00  0.00000000E+00  0.00000000E+00
  0.00000000E+00  0.00000000E+00  0.00000000E+00
  0.00000000E+00  0.00000000E+00  0.00000000E+00
  0.00000000E+00  0.00000000E+00  0.00000000E+00
  0.00000000E+00  0.00000000E+00  0.00000000E+00
  0.00000000E+00  0.00000000E+00  0.00000000E+00
  0.00000000E+00  0.00000000E+00  0.00000000E+00
  0.00000000E+00  0.00000000E+00  0.00000000E+00
  0.00000000E+00  0.00000000E+00  0.00000000E+00
  0.00000000E+00  0.00000000E+00  0.00000000E+00
  0.00000000E+00  0.00000000E+00  0.00000000E+00
  0.00000000E+00  0.00000000E+00  0.00000000E+00
  0.00000000E+00  0.00000000E+00  0.00000000E+00
  0.00000000E+00  0.00000000E+00  0.00000000E+00
  0.00000000E+00  0.00000000E+00  0.00000000E+00
  0.00000000E+00  0.00000000E+00  0.00000000E+00
  0.00000000E+00  0.00000000E+00  0.00000000E+00
  0.00000000E+00  0.00000000E+00  0.00000000E+00
  0.00000000E+00  0.00000000E+00  0.00000000E+00
  0.00000000E+00  0.00000000E+00  0.00000000E+00
  0.00000000E+00  0.00000000E+00  0.00000000E+00
  0.00000000E+00  0.00000000E+00  0.00000000E+00
  0.00000000E+00  0.00000000E+00  0.00000000E+00
  0.00000000E+00  0.00000000E+00  0.00000000E+00
  0.00000000E+00  0.00000000E+00  0.00000000E+00
  0.00000000E+00  0.00000000E+00  0.00000000E+00
  0.00000000E+00  0.00000000E+00  0.00000000E+00
  0.00000000E+00  0.00000000E+00  0.00000000E+00
  0.00000000E+00  0.00000000E+00  0.00000000E+00
  0.00000000E+00  0.00000000E+00  0.00000000E+00
  0.00000000E+00  0.00000000E+00  0.00000000E+00
  0.00000000E+00  0.00000000E+00  0.00000000E+00
  0.00000000E+00  0.00000000E+00  0.00000000E+00
  0.00000000E+00  0.00000000E+00  0.00000000E+00
  0.00000000E+00  0.00000000E+00  0.00000000E+00
  0.00000000E+00  0.00000000E+00  0.00000000E+00
  0.00000000E+00  0.00000000E+00  0.00000000E+00
  0.00000000E+00  0.00000000E+00  0.00000000E+00
  0.00000000E+00  0.00000000E+00  0.00000000E+00
  0.00000000E+00  0.00000000E+00  0.00000000E+00
  0.00000000E+00  0.00000000E+00  0.00000000E+00
  0.00000000E+00  0.00000000E+00  0.00000000E+00
  0.00000000E+00  0.00000000E+00  0.00000000E+00
  0.00000000E+00  0.00000000E+00  0.00000000E+00
  0.00000000E+00  0.00000000E+00  0.00000000E+00
  0.00000000E+00  0.00000000E+00  0.00000000E+00
  0.00000000E+00  0.00000000E+00  0.00000000E+00
  0.00000000E+00  0.00000000E+00  0.00000000E+00
  0.00000000E+00  0.00000000E+00  0.00000000E+00
  0.00000000E+00  0.00000000E+00  0.00000000E+00
  0.00000000E+00  0.00000000E+00  0.00000000E+00
  0.00000000E+00  0.00000000E+00  0.00000000E+00
  0.00000000E+00  0.00000000E+00  0.00000000E+00
  0.00000000E+00  0.00000000E+00  0.00000000E+00
  0.00000000E+00  0.00000000E+00  0.00000000E+00
  0.00000000E+00  0.00000000E+00  0.00000000E+00
  0.00000000E+00  0.00000000E+00  0.00000000E+00
  0.00000000E+00  0.00000000E+00  0.00000000E+00
  0.00000000E+00  0.00000000E+00  0.00000000E+00
  0.00000000E+00  0.00000000E+00  0.00000000E+00
  0.00000000E+00  0.00000000E+00  0.00000000E+00
  0.00000000E+00  0.00000000E+00  0.00000000E+00
  0.00000000E+00  0.00000000E+00  0.00000000E+00
  0.00000000E+00  0.00000000E+00  0.00000000E+00
  0.00000000E+00  0.00000000E+00  0.00000000E+00
  0.00000000E+00  0.00000000E+00  0.00000000E+00
  0.00000000E+00  0.00000000E+00  0.00000000E+00
  0.00000000E+00  0.00000000E+00  0.00000000E+00
  0.00000000E+00  0.00000000E+00  0.00000000E+00
  0.00000000E+00  0.00000000E+00  0.00000000E+00
  0.00000000E+00  0.00000000E+00  0.00000000E+00
  0.00000000E+00  0.00000000E+00  0.00000000E+00
  0.00000000E+00  0.00000000E+00  0.00000000E+00
  0.00000000E+00  0.00000000E+00  0.00000000E+00
  0.00000000E+00  0.00000000E+00  0.00000000E+00
  0.00000000E+00  0.00000000E+00  0.00000000E+00
  0.00000000E+00  0.00000000E+00  0.00000000E+00
  0.00000000E+00  0.00000000E+00  0.00000000E+00
  0.00000000E+00  0.00000000E+00  0.00000000E+00
  0.00000000E+00  0.00000000E+00  0.00000000E+00
  0.00000000E+00  0.00000000E+00  0.00000000E+00
  0.00000000E+00  0.00000000E+00  0.00000000E+00
  0.00000000E+00  0.00000000E+00  0.00000000E+00
  0.00000000E+00  0.00000000E+00  0.00000000E+00
  0.00000000E+00  0.00000000E+00  0.00000000E+00
  0.00000000E+00  0.00000000E+00  0.00000000E+00
  0.00000000E+00  0.00000000E+00  0.00000000E+00
  0.00000000E+00  0.00000000E+00  0.00000000E+00
  0.00000000E+00  0.00000000E+00  0.00000000E+00
  0.00000000E+00  0.00000000E+00  0.00000000E+00
  0.00000000E+00  0.00000000E+00  0.00000000E+00
  0.00000000E+00  0.00000000E+00  0.00000000E+00
  0.00000000E+00  0.00000000E+00  0.00000000E+00
  0.00000000E+00  0.00000000E+00  0.00000000E+00
  0.00000000E+00  0.00000000E+00  0.00000000E+00
  0.00000000E+00  0.00000000E+00  0.00000000E+00
  0.00000000E+00  0.00000000E+00  0.00000000E+00
  0.00000000E+00  0.00000000E+00  0.00000000E+00
  0.00000000E+00  0.00000000E+00  0.00000000E+00
  0.00000000E+00  0.00000000E+00  0.00000000E+00
  0.00000000E+00  0.00000000E+00  0.00000000E+00
  0.00000000E+00  0.00000000E+00  0.00000000E+00
  0.00000000E+00  0.00000000E+00  0.00000000E+00
  0.00000000E+00  0.00000000E+00  0.00000000E+00
  0.00000000E+00  0.00000000E+00  0.00000000E+00
  0.00000000E+00  0.00000000E+00  0.00000000E+00
  0.00000000E+00  0.00000000E+00  0.00000000E+00
  0.00000000E+00  0.00000000E+00  0.00000000E+00
  0.00000000E+00  0.00000000E+00  0.00000000E+00
  0.00000000E+00  0.00000000E+00  0.00000000E+00
  0.00000000E+00  0.00000000E+00  0.00000000E+00
  0.00000000E+00  0.00000000E+00  0.00000000E+00
  0.00000000E+00  0.00000000E+00  0.00000000E+00
  0.00000000E+00  0.00000000E+00  0.00000000E+00
  0.00000000E+00  0.00000000E+00  0.00000000E+00
  0.00000000E+00  0.00000000E+00  0.00000000E+00
  0.00000000E+00  0.00000000E+00  0.00000000E+00
  0.00000000E+00  0.00000000E+00  0.00000000E+00
  0.00000000E+00  0.00000000E+00  0.00000000E+00
  0.00000000E+00  0.00000000E+00  0.00000000E+00
  0.00000000E+00  0.00000000E+00  0.00000000E+00
  0.00000000E+00  0.00000000E+00  0.00000000E+00
  0.00000000E+00  0.00000000E+00  0.00000000E+00
  0.00000000E+00  0.00000000E+00  0.00000000E+00
  0.00000000E+00  0.00000000E+00  0.00000000E+00
  0.00000000E+00  0.00000000E+00  0.00000000E+00
  0.00000000E+00  0.00000000E+00  0.00000000E+00
  0.00000000E+00  0.00000000E+00  0.00000000E+00
  0.00000000E+00  0.00000000E+00  0.00000000E+00
  0.00000000E+00  0.00000000E+00  0.00000000E+00
  0.00000000E+00  0.00000000E+00  0.00000000E+00
  0.00000000E+00  0.00000000E+00  0.00000000E+00
  0.00000000E+00  0.00000000E+00  0.00000000E+00
  0.00000000E+00  0.00000000E+00  0.00000000E+00
  0.00000000E+00  0.00000000E+00  0.00000000E+00
  0.00000000E+00  0.00000000E+00  0.00000000E+00
  0.00000000E+00  0.00000000E+00  0.00000000E+00
  0.00000000E+00  0.00000000E+00  0.00000000E+00
  0.00000000E+00  0.00000000E+00  0.00000000E+00
  0.00000000E+00  0.00000000E+00  0.00000000E+00
  0.00000000E+00  0.00000000E+00  0.00000000E+00
  0.00000000E+00  0.00000000E+00  0.00000000E+00
  0.00000000E+00  0.00000000E+00  0.00000000E+00
  0.00000000E+00  0.00000000E+00  0.00000000E+00
  0.00000000E+00  0.00000000E+00  0.00000000E+00
  0.00000000E+00  0.00000000E+00  0.00000000E+00
  0.00000000E+00  0.00000000E+00  0.00000000E+00
  0.00000000E+00  0.00000000E+00  0.00000000E+00
  0.00000000E+00  0.00000000E+00  0.00000000E+00
  0.00000000E+00  0.00000000E+00  0.00000000E+00
  0.00000000E+00  0.00000000E+00  0.00000000E+00
  0.00000000E+00  0.00000000E+00  0.00000000E+00
  0.00000000E+00  0.00000000E+00  0.00000000E+00
  0.00000000E+00  0.00000000E+00  0.00000000E+00
  0.00000000E+00  0.00000000E+00  0.00000000E+00
  0.00000000E+00  0.00000000E+00  0.00000000E+00
  0.00000000E+00  0.00000000E+00  0.00000000E+00
  0.00000000E+00  0.00000000E+00  0.00000000E+00
  0.00000000E+00  0.00000000E+00  0.00000000E+00
  0.00000000E+00  0.00000000E+00  0.00000000E+00
  0.00000000E+00  0.00000000E+00  0.00000000E+00
  0.00000000E+00  0.00000000E+00  0.00000000E+00
  0.00000000E+00  0.00000000E+00  0.00000000E+00
  0.00000000E+00  0.00000000E+00  0.00000000E+00
  0.00000000E+00  0.00000000E+00  0.00000000E+00
  0.00000000E+00  0.00000000E+00  0.00000000E+00
  0.00000000E+00  0.00000000E+00  0.00000000E+00
  0.00000000E+00  0.00000000E+00  0.00000000E+00
  0.00000000E+00  0.00000000E+00  0.00000000E+00
  0.00000000E+00  0.00000000E+00  0.00000000E+00
  0.00000000E+00  0.00000000E+00  0.00000000E+00
  0.00000000E+00  0.00000000E+00  0.00000000E+00
  0.00000000E+00  0.00000000E+00  0.00000000E+00
  0.00000000E+00  0.00000000E+00  0.00000000E+00
  0.00000000E+00  0.00000000E+00  0.00000000E+00
  0.00000000E+00  0.00000000E+00  0.00000000E+00
  0.00000000E+00  0.00000000E+00  0.00000000E+00
  0.00000000E+00  0.00000000E+00  0.00000000E+00
  0.00000000E+00  0.00000000E+00  0.00000000E+00
  0.00000000E+00  0.00000000E+00  0.00000000E+00
  0.00000000E+00  0.00000000E+00  0.00000000E+00
  0.00000000E+00  0.00000000E+00  0.00000000E+00
  0.00000000E+00  0.00000000E+00  0.00000000E+00
  0.00000000E+00  0.00000000E+00  0.00000000E+00
  0.00000000E+00  0.00000000E+00  0.00000000E+00
  0.00000000E+00  0.00000000E+00  0.00000000E+00
  0.00000000E+00  0.00000000E+00  0.00000000E+00
  0.00000000E+00  0.00000000E+00  0.00000000E+00
  0.00000000E+00  0.00000000E+00  0.00000000E+00
  0.00000000E+00  0.00000000E+00  0.00000000E+00
  0.00000000E+00  0.00000000E+00  0.00000000E+00
  0.00000000E+00  0.00000000E+00  0.00000000E+00
  0.00000000E+00  0.00000000E+00  0.00000000E+00
  0.00000000E+00  0.00000000E+00  0.00000000E+00
  0.00000000E+00  0.00000000E+00  0.00000000E+00
  0.00000000E+00  0.00000000E+00  0.00000000E+00
  0.00000000E+00  0.00000000E+00  0.00000000E+00
  0.00000000E+00  0.00000000E+00  0.00000000E+00
  0.00000000E+00  0.00000000E+00  0.00000000E+00
  0.00000000E+00  0.00000000E+00  0.00000000E+00
  0.00000000E+00  0.00000000E+00  0.00000000E+00
  0.00000000E+00  0.00000000E+00  0.00000000E+00
  0.00000000E+00  0.00000000E+00  0.00000000E+00
  0.00000000E+00  0.00000000E+00  0.00000000E+00
  0.00000000E+00  0.00000000E+00  0.00000000E+00
  0.00000000E+00  0.00000000E+00  0.00000000E+00
  0.00000000E+00  0.00000000E+00  0.00000000E+00