Cu  O Ba  C  H                          
   1.00000000000000     
    15.3360000000000003    0.0000000000000000    0.0000000000000000
   -12.7799999999999940   22.1356093207302536    0.0000000000000000
     0.0000000000000000    0.0000000000000000   30.0000000000000000
   Cu   O    Ba   C    H 
   180    37    36     2     3
Selective dynamics
Direct
  0.0043836685519949  0.0403875063445867  0.1390103106832683   T   T   T
  0.1169500000000028  0.0748900000000035  0.0695600000000027   F   F   F
  0.0613999999999990  0.0082200000000014  0.0000000000000000   F   F   F
  0.1697730529060948  0.0390143985339151  0.1382633881617892   T   T   T
  0.2836199999999991  0.0748900000000035  0.0695600000000027   F   F   F
  0.2280599999999993  0.0082200000000014  0.0000000000000000   F   F   F
  0.3386338698056335  0.0402845369277642  0.1387087859180980   T   T   T
  0.4502799999999993  0.0748900000000035  0.0695600000000027   F   F   F
  0.3947300000000027  0.0082200000000014  0.0000000000000000   F   F   F
  0.5057401023665733  0.0408691607046165  0.1391501283736361   T   T   T
  0.6169500000000028  0.0748900000000035  0.0695600000000027   F   F   F
  0.5613999999999990  0.0082200000000014  0.0000000000000000   F   F   F
  0.6718523883295262  0.0406217748509263  0.1391067491278619   T   T   T
  0.7836199999999991  0.0748900000000035  0.0695600000000027   F   F   F
  0.7280599999999993  0.0082200000000014  0.0000000000000000   F   F   F
  0.8382275937606991  0.0405784987006896  0.1392712994090246   T   T   T
  0.9502799999999993  0.0748900000000035  0.0695600000000027   F   F   F
  0.8947300000000027  0.0082200000000014  0.0000000000000000   F   F   F
  0.0025606902578943  0.1391300413922565  0.1391085232477067   T   T   T
  0.1169500000000028  0.1748899999999978  0.0695600000000027   F   F   F
  0.0613999999999990  0.1082200000000029  0.0000000000000000   F   F   F
  0.1693120712268907  0.1388379700114371  0.1382254381623156   T   T   T
  0.2836199999999991  0.1748899999999978  0.0695600000000027   F   F   F
  0.2280599999999993  0.1082200000000029  0.0000000000000000   F   F   F
  0.3364253080106607  0.1385683002340485  0.1415882849802088   T   T   T
  0.4502799999999993  0.1748899999999978  0.0695600000000027   F   F   F
  0.3947300000000027  0.1082200000000029  0.0000000000000000   F   F   F
  0.5043368873322933  0.1392288111952666  0.1385253539978493   T   T   T
  0.6169500000000028  0.1748899999999978  0.0695600000000027   F   F   F
  0.5613999999999990  0.1082200000000029  0.0000000000000000   F   F   F
  0.6712666293056060  0.1392781101045699  0.1392647059900298   T   T   T
  0.7836199999999991  0.1748899999999978  0.0695600000000027   F   F   F
  0.7280599999999993  0.1082200000000029  0.0000000000000000   F   F   F
  0.8374942336283198  0.1393932491038896  0.1390498408563090   T   T   T
  0.9502799999999993  0.1748899999999978  0.0695600000000027   F   F   F
  0.8947300000000027  0.1082200000000029  0.0000000000000000   F   F   F
  0.0027538099281585  0.2381157098513000  0.1387763925002972   T   T   T
  0.1169500000000028  0.2748899999999992  0.0695600000000027   F   F   F
  0.0613999999999990  0.2082199999999972  0.0000000000000000   F   F   F
  0.1670250418714971  0.2376949313159642  0.1373617507353657   T   T   T
  0.2836199999999991  0.2748899999999992  0.0695600000000027   F   F   F
  0.2280599999999993  0.2082199999999972  0.0000000000000000   F   F   F
  0.3355273160782346  0.2372812428923154  0.1427397760638982   T   T   T
  0.4502799999999993  0.2748899999999992  0.0695600000000027   F   F   F
  0.3947300000000027  0.2082199999999972  0.0000000000000000   F   F   F
  0.5073500166565523  0.2391747237625879  0.1369379579042374   T   T   T
  0.6169500000000028  0.2748899999999992  0.0695600000000027   F   F   F
  0.5613999999999990  0.2082199999999972  0.0000000000000000   F   F   F
  0.6698426816257381  0.2368539648278727  0.1386036719996966   T   T   T
  0.7836199999999991  0.2748899999999992  0.0695600000000027   F   F   F
  0.7280599999999993  0.2082199999999972  0.0000000000000000   F   F   F
  0.8363455483100850  0.2378695719115882  0.1387281254917170   T   T   T
  0.9502799999999993  0.2748899999999992  0.0695600000000027   F   F   F
  0.8947300000000027  0.2082199999999972  0.0000000000000000   F   F   F
  0.0007448293453649  0.3352624062998686  0.1400534142828391   T   T   T
  0.1169500000000028  0.3748900000000006  0.0695600000000027   F   F   F
  0.0613999999999990  0.3082199999999986  0.0000000000000000   F   F   F
  0.1691611603256362  0.3371507349458511  0.1398754679009713   T   T   T
  0.2836199999999991  0.3748900000000006  0.0695600000000027   F   F   F
  0.2280599999999993  0.3082199999999986  0.0000000000000000   F   F   F
  0.3353125343786303  0.3372091199254399  0.1389689264312111   T   T   T
  0.4502799999999993  0.3748900000000006  0.0695600000000027   F   F   F
  0.3947300000000027  0.3082199999999986  0.0000000000000000   F   F   F
  0.5010828609149982  0.3354341290040992  0.1397772328726390   T   T   T
  0.6169500000000028  0.3748900000000006  0.0695600000000027   F   F   F
  0.5613999999999990  0.3082199999999986  0.0000000000000000   F   F   F
  0.6700908452154763  0.3371761319244229  0.1398664860822620   T   T   T
  0.7836199999999991  0.3748900000000006  0.0695600000000027   F   F   F
  0.7280599999999993  0.3082199999999986  0.0000000000000000   F   F   F
  0.8354806166557509  0.3369519249800987  0.1394698245452730   T   T   T
  0.9502799999999993  0.3748900000000006  0.0695600000000027   F   F   F
  0.8947300000000027  0.3082199999999986  0.0000000000000000   F   F   F
  0.0073602903559831  0.4432108090149143  0.1401241889612521   T   T   T
  0.1169500000000028  0.4748900000000020  0.0695600000000027   F   F   F
  0.0613999999999990  0.4082200000000000  0.0000000000000000   F   F   F
  0.1736540742254604  0.4432437073418143  0.1403024275712426   T   T   T
  0.2836199999999991  0.4748900000000020  0.0695600000000027   F   F   F
  0.2280599999999993  0.4082200000000000  0.0000000000000000   F   F   F
  0.3381618685673331  0.4401969530617293  0.1388391210684645   T   T   T
  0.4502799999999993  0.4748900000000020  0.0695600000000027   F   F   F
  0.3947300000000027  0.4082200000000000  0.0000000000000000   F   F   F
  0.5074541106481050  0.4433490077683757  0.1403244134162875   T   T   T
  0.6169500000000028  0.4748900000000020  0.0695600000000027   F   F   F
  0.5613999999999990  0.4082200000000000  0.0000000000000000   F   F   F
  0.6737441031949913  0.4433729635030446  0.1404429011944970   T   T   T
  0.7836199999999991  0.4748900000000020  0.0695600000000027   F   F   F
  0.7280599999999993  0.4082200000000000  0.0000000000000000   F   F   F
  0.8383591176031189  0.4405368107895313  0.1388380688443718   T   T   T
  0.9502799999999993  0.4748900000000020  0.0695600000000027   F   F   F
  0.8947300000000027  0.4082200000000000  0.0000000000000000   F   F   F
  0.0084941700332877  0.5424265588304777  0.1396375197999049   T   T   T
  0.1169500000000028  0.5748900000000035  0.0695600000000027   F   F   F
  0.0613999999999990  0.5082200000000014  0.0000000000000000   F   F   F
  0.1741996648484729  0.5437203175613377  0.1338819166737792   T   T   T
  0.2836199999999991  0.5748900000000035  0.0695600000000027   F   F   F
  0.2280599999999993  0.5082200000000014  0.0000000000000000   F   F   F
  0.3379171268142542  0.5423978591219409  0.1396477298315659   T   T   T
  0.4502799999999993  0.5748900000000035  0.0695600000000027   F   F   F
  0.3947300000000027  0.5082200000000014  0.0000000000000000   F   F   F
  0.5083115161830136  0.5424135247403896  0.1396408806180816   T   T   T
  0.6169500000000028  0.5748900000000035  0.0695600000000027   F   F   F
  0.5613999999999990  0.5082200000000014  0.0000000000000000   F   F   F
  0.6740135378637504  0.5437981030763339  0.1337146607911990   T   T   T
  0.7836199999999991  0.5748900000000035  0.0695600000000027   F   F   F
  0.7280599999999993  0.5082200000000014  0.0000000000000000   F   F   F
  0.8379916182547547  0.5426079007913245  0.1396962366903196   T   T   T
  0.9502799999999993  0.5748900000000035  0.0695600000000027   F   F   F
  0.8947300000000027  0.5082200000000014  0.0000000000000000   F   F   F
  0.0101921175458770  0.6470431855433318  0.1450593578162653   T   T   T
  0.1169500000000028  0.6748899999999978  0.0695600000000027   F   F   F
  0.0613999999999990  0.6082200000000029  0.0000000000000000   F   F   F
  0.1750426120308433  0.6441865448585773  0.1395790669044672   T   T   T
  0.2836199999999991  0.6748899999999978  0.0695600000000027   F   F   F
  0.2280599999999993  0.6082200000000029  0.0000000000000000   F   F   F
  0.3405942843859222  0.6442077539744062  0.1393655410245529   T   T   T
  0.4502799999999993  0.6748899999999978  0.0695600000000027   F   F   F
  0.3947300000000027  0.6082200000000029  0.0000000000000000   F   F   F
  0.5102367651813680  0.6471164788735706  0.1447314805548032   T   T   T
  0.6169500000000028  0.6748899999999978  0.0695600000000027   F   F   F
  0.5613999999999990  0.6082200000000029  0.0000000000000000   F   F   F
  0.6750285384174930  0.6443058555977075  0.1397077193829759   T   T   T
  0.7836199999999991  0.6748899999999978  0.0695600000000027   F   F   F
  0.7280599999999993  0.6082200000000029  0.0000000000000000   F   F   F
  0.8409424800853174  0.6442896228239832  0.1392180098388209   T   T   T
  0.9502799999999993  0.6748899999999978  0.0695600000000027   F   F   F
  0.8947300000000027  0.6082200000000029  0.0000000000000000   F   F   F
  0.0100582285225457  0.7458305662416294  0.1346194045506195   T   T   T
  0.1169500000000028  0.7748899999999992  0.0695600000000027   F   F   F
  0.0613999999999990  0.7082199999999972  0.0000000000000000   F   F   F
  0.1748577353628491  0.7458243548973940  0.1344972938385922   T   T   T
  0.2836199999999991  0.7748899999999992  0.0695600000000027   F   F   F
  0.2280599999999993  0.7082199999999972  0.0000000000000000   F   F   F
  0.3410254341928294  0.7441576695297485  0.1395809759187756   T   T   T
  0.4502799999999993  0.7748899999999992  0.0695600000000027   F   F   F
  0.3947300000000027  0.7082199999999972  0.0000000000000000   F   F   F
  0.5099767397532986  0.7458265636715211  0.1346067231514354   T   T   T
  0.6169500000000028  0.7748899999999992  0.0695600000000027   F   F   F
  0.5613999999999990  0.7082199999999972  0.0000000000000000   F   F   F
  0.6749319403178760  0.7459439140814226  0.1345334333944024   T   T   T
  0.7836199999999991  0.7748899999999992  0.0695600000000027   F   F   F
  0.7280599999999993  0.7082199999999972  0.0000000000000000   F   F   F
  0.8413351536509808  0.7443875235544510  0.1395203189913801   T   T   T
  0.9502799999999993  0.7748899999999992  0.0695600000000027   F   F   F
  0.8947300000000027  0.7082199999999972  0.0000000000000000   F   F   F
  0.0065733637134215  0.8426818492141095  0.1401697486572075   T   T   T
  0.1169500000000028  0.8748900000000006  0.0695600000000027   F   F   F
  0.0613999999999990  0.8082199999999986  0.0000000000000000   F   F   F
  0.1740451033313235  0.8434074669227627  0.1404610331551339   T   T   T
  0.2836199999999991  0.8748900000000006  0.0695600000000027   F   F   F
  0.2280599999999993  0.8082199999999986  0.0000000000000000   F   F   F
  0.3402087364138779  0.8428197475785097  0.1401271114779448   T   T   T
  0.4502799999999993  0.8748900000000006  0.0695600000000027   F   F   F
  0.3947300000000027  0.8082199999999986  0.0000000000000000   F   F   F
  0.5063981454617874  0.8428102067017491  0.1400763749713221   T   T   T
  0.6169500000000028  0.8748900000000006  0.0695600000000027   F   F   F
  0.5613999999999990  0.8082199999999986  0.0000000000000000   F   F   F
  0.6736259836327037  0.8434346938440029  0.1405374797813010   T   T   T
  0.7836199999999991  0.8748900000000006  0.0695600000000027   F   F   F
  0.7280599999999993  0.8082199999999986  0.0000000000000000   F   F   F
  0.8398903043914316  0.8427342958608648  0.1402621149380749   T   T   T
  0.9502799999999993  0.8748900000000006  0.0695600000000027   F   F   F
  0.8947300000000027  0.8082199999999986  0.0000000000000000   F   F   F
  0.0050421119182786  0.9411034991600573  0.1394910244551681   T   T   T
  0.1169500000000028  0.9748900000000020  0.0695600000000027   F   F   F
  0.0613999999999990  0.9082200000000000  0.0000000000000000   F   F   F
  0.1723166354522263  0.9413582935663101  0.1395001234359086   T   T   T
  0.2836199999999991  0.9748900000000020  0.0695600000000027   F   F   F
  0.2280599999999993  0.9082200000000000  0.0000000000000000   F   F   F
  0.3395069613206871  0.9415708076623304  0.1394545273684855   T   T   T
  0.4502799999999993  0.9748900000000020  0.0695600000000027   F   F   F
  0.3947300000000027  0.9082200000000000  0.0000000000000000   F   F   F
  0.5058518597067732  0.9415370588289278  0.1393870255885048   T   T   T
  0.6169500000000028  0.9748900000000020  0.0695600000000027   F   F   F
  0.5613999999999990  0.9082200000000000  0.0000000000000000   F   F   F
  0.6721577735128861  0.9415201677404994  0.1395389650893932   T   T   T
  0.7836199999999991  0.9748900000000020  0.0695600000000027   F   F   F
  0.7280599999999993  0.9082200000000000  0.0000000000000000   F   F   F
  0.8390323089704950  0.9414568401777004  0.1394713953257423   T   T   T
  0.9502799999999993  0.9748900000000020  0.0695600000000027   F   F   F
  0.8947300000000027  0.9082200000000000  0.0000000000000000   F   F   F
  0.2822395729901288  0.3732025139995656  0.1857030762066216   T   T   T
  0.5535945966451834  0.3991312985324598  0.1840904880798533   T   T   T
  0.7833378750570574  0.3736616054593469  0.1855582216580842   T   T   T
  0.0536727845561273  0.3994947087118206  0.1838942259903646   T   T   T
  0.1084023185796141  0.4658994767270173  0.2955049967771615   T   T   T
  0.2687352752293393  0.5055626891142850  0.1970912248928371   T   T   T
  0.3566861465663038  0.4638123005647046  0.2970683187911192   T   T   T
  0.5132208413453796  0.5045147406585286  0.1968791466082180   T   T   T
  0.6085148277585830  0.4658460760622987  0.2956167714097333   T   T   T
  0.7693776456749859  0.5050895633171422  0.1971482035829197   T   T   T
  0.8569949755077033  0.4640346211033801  0.2972221147945575   T   T   T
  0.0143721691173724  0.5049732750454297  0.1969571613309711   T   T   T
  0.1053966694889752  0.6093235485085913  0.3058298975708809   T   T   T
  0.2830919914374874  0.6755552534508880  0.1946968700257585   T   T   T
  0.1941264400195806  0.5722946613323643  0.4072482140879146   T   T   T
  0.3512448801215129  0.6093011830110626  0.3042397684104401   T   T   T
  0.5307746866058451  0.6722363647538430  0.2103182261440182   T   T   T
  0.4453106113555805  0.5732860997041911  0.4060089706002401   T   T   T
  0.6054094257807705  0.6099971618187254  0.3052084861530560   T   T   T
  0.7809320301262588  0.6742932131479336  0.1944248539840601   T   T   T
  0.6944548007051168  0.5721290837944011  0.4070715935742300   T   T   T
  0.8503320149210509  0.6096482748466912  0.3038782936134012   T   T   T
  0.0333148896475137  0.6719402220760031  0.2108708955871421   T   T   T
  0.9457009949509825  0.5739797878712807  0.4060579772789410   T   T   T
  0.1192605962070701  0.7778267939888508  0.3037604705732875   T   T   T
  0.1915427881098566  0.7202577491438547  0.4130469159077350   T   T   T
  0.3729368715703600  0.7768126681428527  0.3048580186986030   T   T   T
  0.4331398048617245  0.7127691478684781  0.4199098485020585   T   T   T
  0.6208534844712617  0.7791345180565159  0.3043517380520200   T   T   T
  0.6888629634204335  0.7165147524650592  0.4150028564429746   T   T   T
  0.8717968760221027  0.7771263752157438  0.3042776234468363   T   T   T
  0.9339448179703993  0.7134102020065853  0.4195267023086302   T   T   T
  0.1892828771474129  0.8774742380392411  0.4042350183395769   T   T   T
  0.4370653376796056  0.8766339690261304  0.4086653114644179   T   T   T
  0.6886610065532466  0.8775227531164163  0.4046262937118215   T   T   T
  0.9365943550419971  0.8768676251097247  0.4067008307029880   T   T   T
  0.3300939379065539  0.1715852512645242  0.2724171246938312   T   T   T
  0.2678124281779333  0.5069702530925966  0.3457632225577498   T   T   T
  0.1853349653330127  0.4064188548871996  0.2419290569579005   T   T   T
  0.5191906633511110  0.5070079909987584  0.3460702839183014   T   T   T
  0.4324547225444704  0.4054394414551510  0.2421419393495299   T   T   T
  0.7675910438247655  0.5072453028064174  0.3458604705371897   T   T   T
  0.6854245172486060  0.4061360271755277  0.2420702005485822   T   T   T
  0.0191980066387742  0.5067587327573619  0.3464340109531321   T   T   T
  0.9337457560231215  0.4062338586893972  0.2422814088006007   T   T   T
  0.0991880554060458  0.6088891063003530  0.4508786163749789   T   T   T
  0.2783937699576313  0.6673384616345857  0.3456671834528606   T   T   T
  0.1918000139302904  0.5656221959333507  0.2371377513819581   T   T   T
  0.3461014877578634  0.6040162498087653  0.4532944353731168   T   T   T
  0.5265550007273276  0.6671494158178248  0.3430086018967913   T   T   T
  0.4409347431859132  0.5638883306528939  0.2400733885266675   T   T   T
  0.5981091796426909  0.6071526158342309  0.4515979131131402   T   T   T
  0.7776852354869348  0.6677250578531044  0.3457300567463975   T   T   T
  0.6908695739286728  0.5644645606378518  0.2370414017853335   T   T   T
  0.8464711385205774  0.6047592433072850  0.4532738652133261   T   T   T
  0.0257218548262443  0.6667298345254906  0.3425519540965638   T   T   T
  0.9411288944343283  0.5635747914447080  0.2401890304918766   T   T   T
  0.1092282121252879  0.7745420948901511  0.4496870266684851   T   T   T
  0.2945412360556077  0.8330271389387818  0.3383689390104507   T   T   T
  0.2110562059513583  0.7381207167153221  0.2330510670154240   T   T   T
  0.3594678136650629  0.7732913105741517  0.4531272091039185   T   T   T
  0.5540191277275071  0.8438954534626504  0.3301241495944254   T   T   T
  0.4572424267200645  0.7352040969551012  0.2336177112660494   T   T   T
  0.6094476911560704  0.7736761950718716  0.4490996312062165   T   T   T
  0.7996260845013765  0.8382071886499176  0.3342949280510581   T   T   T
  0.7090059760388954  0.7361331667356552  0.2331684064289021   T   T   T
  0.8596224835330517  0.7740568996927024  0.4515758142347579   T   T   T
  0.0536525117782389  0.8431397459465018  0.3285351982779687   T   T   T
  0.9554284808385844  0.7327194090574025  0.2334340737854674   T   T   T
  0.1152356777672594  0.9403812161496958  0.4316094858184627   T   T   T
  0.3653631090752398  0.9410546816411554  0.4342936785852345   T   T   T
  0.6137546688772986  0.9381444992315053  0.4363074443930728   T   T   T
  0.8652922822469336  0.9411044289355388  0.4333275717721179   T   T   T
  0.3558780584487167  0.1864178188784962  0.2282742432194524   T   T   T
  0.2900767962716699  0.1748783331204748  0.1941817133125383   T   T   T
  0.4376252323599701  0.2085924224537763  0.2242983522894377   T   T   T
  0.2564926556270919  0.1472711411915526  0.2738038236771274   T   T   T
  0.2114458932874328  0.1524218439582938  0.2071526909635537   T   T   T
 
  0.00000000E+00  0.00000000E+00  0.00000000E+00
  0.00000000E+00  0.00000000E+00  0.00000000E+00
  0.00000000E+00  0.00000000E+00  0.00000000E+00
  0.00000000E+00  0.00000000E+00  0.00000000E+00
  0.00000000E+00  0.00000000E+00  0.00000000E+00
  0.00000000E+00  0.00000000E+00  0.00000000E+00
  0.00000000E+00  0.00000000E+00  0.00000000E+00
  0.00000000E+00  0.00000000E+00  0.00000000E+00
  0.00000000E+00  0.00000000E+00  0.00000000E+00
  0.00000000E+00  0.00000000E+00  0.00000000E+00
  0.00000000E+00  0.00000000E+00  0.00000000E+00
  0.00000000E+00  0.00000000E+00  0.00000000E+00
  0.00000000E+00  0.00000000E+00  0.00000000E+00
  0.00000000E+00  0.00000000E+00  0.00000000E+00
  0.00000000E+00  0.00000000E+00  0.00000000E+00
  0.00000000E+00  0.00000000E+00  0.00000000E+00
  0.00000000E+00  0.00000000E+00  0.00000000E+00
  0.00000000E+00  0.00000000E+00  0.00000000E+00
  0.00000000E+00  0.00000000E+00  0.00000000E+00
  0.00000000E+00  0.00000000E+00  0.00000000E+00
  0.00000000E+00  0.00000000E+00  0.00000000E+00
  0.00000000E+00  0.00000000E+00  0.00000000E+00
  0.00000000E+00  0.00000000E+00  0.00000000E+00
  0.00000000E+00  0.00000000E+00  0.00000000E+00
  0.00000000E+00  0.00000000E+00  0.00000000E+00
  0.00000000E+00  0.00000000E+00  0.00000000E+00
  0.00000000E+00  0.00000000E+00  0.00000000E+00
  0.00000000E+00  0.00000000E+00  0.00000000E+00
  0.00000000E+00  0.00000000E+00  0.00000000E+00
  0.00000000E+00  0.00000000E+00  0.00000000E+00
  0.00000000E+00  0.00000000E+00  0.00000000E+00
  0.00000000E+00  0.00000000E+00  0.00000000E+00
  0.00000000E+00  0.00000000E+00  0.00000000E+00
  0.00000000E+00  0.00000000E+00  0.00000000E+00
  0.00000000E+00  0.00000000E+00  0.00000000E+00
  0.00000000E+00  0.00000000E+00  0.00000000E+00
  0.00000000E+00  0.00000000E+00  0.00000000E+00
  0.00000000E+00  0.00000000E+00  0.00000000E+00
  0.00000000E+00  0.00000000E+00  0.00000000E+00
  0.00000000E+00  0.00000000E+00  0.00000000E+00
  0.00000000E+00  0.00000000E+00  0.00000000E+00
  0.00000000E+00  0.00000000E+00  0.00000000E+00
  0.00000000E+00  0.00000000E+00  0.00000000E+00
  0.00000000E+00  0.00000000E+00  0.00000000E+00
  0.00000000E+00  0.00000000E+00  0.00000000E+00
  0.00000000E+00  0.00000000E+00  0.00000000E+00
  0.00000000E+00  0.00000000E+00  0.00000000E+00
  0.00000000E+00  0.00000000E+00  0.00000000E+00
  0.00000000E+00  0.00000000E+00  0.00000000E+00
  0.00000000E+00  0.00000000E+00  0.00000000E+00
  0.00000000E+00  0.00000000E+00  0.00000000E+00
  0.00000000E+00  0.00000000E+00  0.00000000E+00
  0.00000000E+00  0.00000000E+00  0.00000000E+00
  0.00000000E+00  0.00000000E+00  0.00000000E+00
  0.00000000E+00  0.00000000E+00  0.00000000E+00
  0.00000000E+00  0.00000000E+00  0.00000000E+00
  0.00000000E+00  0.00000000E+00  0.00000000E+00
  0.00000000E+00  0.00000000E+00  0.00000000E+00
  0.00000000E+00  0.00000000E+00  0.00000000E+00
  0.00000000E+00  0.00000000E+00  0.00000000E+00
  0.00000000E+00  0.00000000E+00  0.00000000E+00
  0.00000000E+00  0.00000000E+00  0.00000000E+00
  0.00000000E+00  0.00000000E+00  0.00000000E+00
  0.00000000E+00  0.00000000E+00  0.00000000E+00
  0.00000000E+00  0.00000000E+00  0.00000000E+00
  0.00000000E+00  0.00000000E+00  0.00000000E+00
  0.00000000E+00  0.00000000E+00  0.00000000E+00
  0.00000000E+00  0.00000000E+00  0.00000000E+00
  0.00000000E+00  0.00000000E+00  0.00000000E+00
  0.00000000E+00  0.00000000E+00  0.00000000E+00
  0.00000000E+00  0.00000000E+00  0.00000000E+00
  0.00000000E+00  0.00000000E+00  0.00000000E+00
  0.00000000E+00  0.00000000E+00  0.00000000E+00
  0.00000000E+00  0.00000000E+00  0.00000000E+00
  0.00000000E+00  0.00000000E+00  0.00000000E+00
  0.00000000E+00  0.00000000E+00  0.00000000E+00
  0.00000000E+00  0.00000000E+00  0.00000000E+00
  0.00000000E+00  0.00000000E+00  0.00000000E+00
  0.00000000E+00  0.00000000E+00  0.00000000E+00
  0.00000000E+00  0.00000000E+00  0.00000000E+00
  0.00000000E+00  0.00000000E+00  0.00000000E+00
  0.00000000E+00  0.00000000E+00  0.00000000E+00
  0.00000000E+00  0.00000000E+00  0.00000000E+00
  0.00000000E+00  0.00000000E+00  0.00000000E+00
  0.00000000E+00  0.00000000E+00  0.00000000E+00
  0.00000000E+00  0.00000000E+00  0.00000000E+00
  0.00000000E+00  0.00000000E+00  0.00000000E+00
  0.00000000E+00  0.00000000E+00  0.00000000E+00
  0.00000000E+00  0.00000000E+00  0.00000000E+00
  0.00000000E+00  0.00000000E+00  0.00000000E+00
  0.00000000E+00  0.00000000E+00  0.00000000E+00
  0.00000000E+00  0.00000000E+00  0.00000000E+00
  0.00000000E+00  0.00000000E+00  0.00000000E+00
  0.00000000E+00  0.00000000E+00  0.00000000E+00
  0.00000000E+00  0.00000000E+00  0.00000000E+00
  0.00000000E+00  0.00000000E+00  0.00000000E+00
  0.00000000E+00  0.00000000E+00  0.00000000E+00
  0.00000000E+00  0.00000000E+00  0.00000000E+00
  0.00000000E+00  0.00000000E+00  0.00000000E+00
  0.00000000E+00  0.00000000E+00  0.00000000E+00
  0.00000000E+00  0.00000000E+00  0.00000000E+00
  0.00000000E+00  0.00000000E+00  0.00000000E+00
  0.00000000E+00  0.00000000E+00  0.00000000E+00
  0.00000000E+00  0.00000000E+00  0.00000000E+00
  0.00000000E+00  0.00000000E+00  0.00000000E+00
  0.00000000E+00  0.00000000E+00  0.00000000E+00
  0.00000000E+00  0.00000000E+00  0.00000000E+00
  0.00000000E+00  0.00000000E+00  0.00000000E+00
  0.00000000E+00  0.00000000E+00  0.00000000E+00
  0.00000000E+00  0.00000000E+00  0.00000000E+00
  0.00000000E+00  0.00000000E+00  0.00000000E+00
  0.00000000E+00  0.00000000E+00  0.00000000E+00
  0.00000000E+00  0.00000000E+00  0.00000000E+00
  0.00000000E+00  0.00000000E+00  0.00000000E+00
  0.00000000E+00  0.00000000E+00  0.00000000E+00
  0.00000000E+00  0.00000000E+00  0.00000000E+00
  0.00000000E+00  0.00000000E+00  0.00000000E+00
  0.00000000E+00  0.00000000E+00  0.00000000E+00
  0.00000000E+00  0.00000000E+00  0.00000000E+00
  0.00000000E+00  0.00000000E+00  0.00000000E+00
  0.00000000E+00  0.00000000E+00  0.00000000E+00
  0.00000000E+00  0.00000000E+00  0.00000000E+00
  0.00000000E+00  0.00000000E+00  0.00000000E+00
  0.00000000E+00  0.00000000E+00  0.00000000E+00
  0.00000000E+00  0.00000000E+00  0.00000000E+00
  0.00000000E+00  0.00000000E+00  0.00000000E+00
  0.00000000E+00  0.00000000E+00  0.00000000E+00
  0.00000000E+00  0.00000000E+00  0.00000000E+00
  0.00000000E+00  0.00000000E+00  0.00000000E+00
  0.00000000E+00  0.00000000E+00  0.00000000E+00
  0.00000000E+00  0.00000000E+00  0.00000000E+00
  0.00000000E+00  0.00000000E+00  0.00000000E+00
  0.00000000E+00  0.00000000E+00  0.00000000E+00
  0.00000000E+00  0.00000000E+00  0.00000000E+00
  0.00000000E+00  0.00000000E+00  0.00000000E+00
  0.00000000E+00  0.00000000E+00  0.00000000E+00
  0.00000000E+00  0.00000000E+00  0.00000000E+00
  0.00000000E+00  0.00000000E+00  0.00000000E+00
  0.00000000E+00  0.00000000E+00  0.00000000E+00
  0.00000000E+00  0.00000000E+00  0.00000000E+00
  0.00000000E+00  0.00000000E+00  0.00000000E+00
  0.00000000E+00  0.00000000E+00  0.00000000E+00
  0.00000000E+00  0.00000000E+00  0.00000000E+00
  0.00000000E+00  0.00000000E+00  0.00000000E+00
  0.00000000E+00  0.00000000E+00  0.00000000E+00
  0.00000000E+00  0.00000000E+00  0.00000000E+00
  0.00000000E+00  0.00000000E+00  0.00000000E+00
  0.00000000E+00  0.00000000E+00  0.00000000E+00
  0.00000000E+00  0.00000000E+00  0.00000000E+00
  0.00000000E+00  0.00000000E+00  0.00000000E+00
  0.00000000E+00  0.00000000E+00  0.00000000E+00
  0.00000000E+00  0.00000000E+00  0.00000000E+00
  0.00000000E+00  0.00000000E+00  0.00000000E+00
  0.00000000E+00  0.00000000E+00  0.00000000E+00
  0.00000000E+00  0.00000000E+00  0.00000000E+00
  0.00000000E+00  0.00000000E+00  0.00000000E+00
  0.00000000E+00  0.00000000E+00  0.00000000E+00
  0.00000000E+00  0.00000000E+00  0.00000000E+00
  0.00000000E+00  0.00000000E+00  0.00000000E+00
  0.00000000E+00  0.00000000E+00  0.00000000E+00
  0.00000000E+00  0.00000000E+00  0.00000000E+00
  0.00000000E+00  0.00000000E+00  0.00000000E+00
  0.00000000E+00  0.00000000E+00  0.00000000E+00
  0.00000000E+00  0.00000000E+00  0.00000000E+00
  0.00000000E+00  0.00000000E+00  0.00000000E+00
  0.00000000E+00  0.00000000E+00  0.00000000E+00
  0.00000000E+00  0.00000000E+00  0.00000000E+00
  0.00000000E+00  0.00000000E+00  0.00000000E+00
  0.00000000E+00  0.00000000E+00  0.00000000E+00
  0.00000000E+00  0.00000000E+00  0.00000000E+00
  0.00000000E+00  0.00000000E+00  0.00000000E+00
  0.00000000E+00  0.00000000E+00  0.00000000E+00
  0.00000000E+00  0.00000000E+00  0.00000000E+00
  0.00000000E+00  0.00000000E+00  0.00000000E+00
  0.00000000E+00  0.00000000E+00  0.00000000E+00
  0.00000000E+00  0.00000000E+00  0.00000000E+00
  0.00000000E+00  0.00000000E+00  0.00000000E+00
  0.00000000E+00  0.00000000E+00  0.00000000E+00
  0.00000000E+00  0.00000000E+00  0.00000000E+00
  0.00000000E+00  0.00000000E+00  0.00000000E+00
  0.00000000E+00  0.00000000E+00  0.00000000E+00
  0.00000000E+00  0.00000000E+00  0.00000000E+00
  0.00000000E+00  0.00000000E+00  0.00000000E+00
  0.00000000E+00  0.00000000E+00  0.00000000E+00
  0.00000000E+00  0.00000000E+00  0.00000000E+00
  0.00000000E+00  0.00000000E+00  0.00000000E+00
  0.00000000E+00  0.00000000E+00  0.00000000E+00
  0.00000000E+00  0.00000000E+00  0.00000000E+00
  0.00000000E+00  0.00000000E+00  0.00000000E+00
  0.00000000E+00  0.00000000E+00  0.00000000E+00
  0.00000000E+00  0.00000000E+00  0.00000000E+00
  0.00000000E+00  0.00000000E+00  0.00000000E+00
  0.00000000E+00  0.00000000E+00  0.00000000E+00
  0.00000000E+00  0.00000000E+00  0.00000000E+00
  0.00000000E+00  0.00000000E+00  0.00000000E+00
  0.00000000E+00  0.00000000E+00  0.00000000E+00
  0.00000000E+00  0.00000000E+00  0.00000000E+00
  0.00000000E+00  0.00000000E+00  0.00000000E+00
  0.00000000E+00  0.00000000E+00  0.00000000E+00
  0.00000000E+00  0.00000000E+00  0.00000000E+00
  0.00000000E+00  0.00000000E+00  0.00000000E+00
  0.00000000E+00  0.00000000E+00  0.00000000E+00
  0.00000000E+00  0.00000000E+00  0.00000000E+00
  0.00000000E+00  0.00000000E+00  0.00000000E+00
  0.00000000E+00  0.00000000E+00  0.00000000E+00
  0.00000000E+00  0.00000000E+00  0.00000000E+00
  0.00000000E+00  0.00000000E+00  0.00000000E+00
  0.00000000E+00  0.00000000E+00  0.00000000E+00
  0.00000000E+00  0.00000000E+00  0.00000000E+00
  0.00000000E+00  0.00000000E+00  0.00000000E+00
  0.00000000E+00  0.00000000E+00  0.00000000E+00
  0.00000000E+00  0.00000000E+00  0.00000000E+00
  0.00000000E+00  0.00000000E+00  0.00000000E+00
  0.00000000E+00  0.00000000E+00  0.00000000E+00
  0.00000000E+00  0.00000000E+00  0.00000000E+00
  0.00000000E+00  0.00000000E+00  0.00000000E+00
  0.00000000E+00  0.00000000E+00  0.00000000E+00
  0.00000000E+00  0.00000000E+00  0.00000000E+00
  0.00000000E+00  0.00000000E+00  0.00000000E+00
  0.00000000E+00  0.00000000E+00  0.00000000E+00