Cu Ba  O                                
   1.00000000000000     
    17.7083000000000013    0.0000000000000000    0.0000000000000000
    11.8055411591677863   26.3980451491998807    0.0000000000000000
     0.0000000000000000    0.0000000000000000   33.0414000000000030
   Cu   Ba   O 
   192    36    36
Selective dynamics
Direct
  0.0677799999999991  0.1076100000000011  0.0576200000000000   F   F   F
  0.2177799999999976  0.0701099999999997  0.0331600000000023   F   F   F
  0.1173213257309695  0.0953346679577452  0.1319129120924074   T   T   T
  0.1677800000000005  0.0201100000000025  0.0820900000000009   F   F   F
  0.0177800000000019  0.0576099999999968  0.1065400000000025   F   F   F
  0.2170358911348089  0.0078018419454052  0.1519829944153166   T   T   T
  0.3177799999999991  0.1076100000000011  0.0576200000000000   F   F   F
  0.4677799999999976  0.0701099999999997  0.0331600000000023   F   F   F
  0.3673066261612213  0.0953158725483383  0.1319535974559422   T   T   T
  0.4177800000000005  0.0201100000000025  0.0820900000000009   F   F   F
  0.2677800000000019  0.0576099999999968  0.1065400000000025   F   F   F
  0.4661626366900110  0.0078376050322391  0.1519673807980095   T   T   T
  0.5677799999999991  0.1076100000000011  0.0576200000000000   F   F   F
  0.7177799999999976  0.0701099999999997  0.0331600000000023   F   F   F
  0.6173341053120258  0.0953742407508899  0.1320690071837548   T   T   T
  0.6677800000000005  0.0201100000000025  0.0820900000000009   F   F   F
  0.5177800000000019  0.0576099999999968  0.1065400000000025   F   F   F
  0.7165191286799395  0.0079324846648471  0.1521163419175298   T   T   T
  0.8177799999999991  0.1076100000000011  0.0576200000000000   F   F   F
  0.9677799999999976  0.0701099999999997  0.0331600000000023   F   F   F
  0.8673227787275529  0.0951439076721582  0.1320282713681966   T   T   T
  0.9177800000000005  0.0201100000000025  0.0820900000000009   F   F   F
  0.7677800000000019  0.0576099999999968  0.1065400000000025   F   F   F
  0.9665621330325126  0.0077855483641851  0.1520520346634952   T   T   T
  0.0677799999999991  0.2326100000000011  0.0576200000000000   F   F   F
  0.2177799999999976  0.1951099999999997  0.0331600000000023   F   F   F
  0.1171385153013135  0.2200971144975636  0.1320278592925709   T   T   T
  0.1677800000000005  0.1451100000000025  0.0820900000000009   F   F   F
  0.0177800000000019  0.1826099999999968  0.1065400000000025   F   F   F
  0.2171534025440922  0.1327526547454080  0.1520720187320130   T   T   T
  0.3177799999999991  0.2326100000000011  0.0576200000000000   F   F   F
  0.4677799999999976  0.1951099999999997  0.0331600000000023   F   F   F
  0.3673034816176191  0.2202628957704085  0.1321026325154182   T   T   T
  0.4177800000000005  0.1451100000000025  0.0820900000000009   F   F   F
  0.2677800000000019  0.1826099999999968  0.1065400000000025   F   F   F
  0.4669943356666512  0.1328069337928344  0.1520593101295503   T   T   T
  0.5677799999999991  0.2326100000000011  0.0576200000000000   F   F   F
  0.7177799999999976  0.1951099999999997  0.0331600000000023   F   F   F
  0.6173734995940359  0.2201262438168090  0.1320292108000286   T   T   T
  0.6677800000000005  0.1451100000000025  0.0820900000000009   F   F   F
  0.5177800000000019  0.1826099999999968  0.1065400000000025   F   F   F
  0.7171196351670693  0.1327079065785965  0.1520902371311056   T   T   T
  0.8177799999999991  0.2326100000000011  0.0576200000000000   F   F   F
  0.9677799999999976  0.1951099999999997  0.0331600000000023   F   F   F
  0.8672332876708230  0.2204083602061922  0.1322764041763620   T   T   T
  0.9177800000000005  0.1451100000000025  0.0820900000000009   F   F   F
  0.7677800000000019  0.1826099999999968  0.1065400000000025   F   F   F
  0.9668071954026821  0.1328547694509642  0.1518774955371843   T   T   T
  0.0677799999999991  0.3576100000000011  0.0576200000000000   F   F   F
  0.2177799999999976  0.3201099999999997  0.0331600000000023   F   F   F
  0.1181592862217613  0.3452636774141545  0.1318919492963673   T   T   T
  0.1677800000000005  0.2701100000000025  0.0820900000000009   F   F   F
  0.0177800000000019  0.3076099999999968  0.1065400000000025   F   F   F
  0.2167868601242818  0.2575678167129066  0.1518874570309361   T   T   T
  0.3177799999999991  0.3576100000000011  0.0576200000000000   F   F   F
  0.4677799999999976  0.3201099999999997  0.0331600000000023   F   F   F
  0.3633047818634767  0.3459985875916954  0.1319423284434925   T   T   T
  0.4177800000000005  0.2701100000000025  0.0820900000000009   F   F   F
  0.2677800000000019  0.3076099999999968  0.1065400000000025   F   F   F
  0.4662112771465449  0.2586398440840925  0.1518018462161693   T   T   T
  0.5677799999999991  0.3576100000000011  0.0576200000000000   F   F   F
  0.7177799999999976  0.3201099999999997  0.0331600000000023   F   F   F
  0.6162570855379017  0.3458387945212090  0.1330229284989752   T   T   T
  0.6677800000000005  0.2701100000000025  0.0820900000000009   F   F   F
  0.5177800000000019  0.3076099999999968  0.1065400000000025   F   F   F
  0.7166204135912514  0.2579675475386214  0.1519728630036011   T   T   T
  0.8177799999999991  0.3576100000000011  0.0576200000000000   F   F   F
  0.9677799999999976  0.3201099999999997  0.0331600000000023   F   F   F
  0.8666041174566985  0.3453785755354847  0.1326414370797482   T   T   T
  0.9177800000000005  0.2701100000000025  0.0820900000000009   F   F   F
  0.7677800000000019  0.3076099999999968  0.1065400000000025   F   F   F
  0.9665422997325814  0.2582569898084004  0.1521405979908211   T   T   T
  0.0677799999999991  0.4826100000000011  0.0576200000000000   F   F   F
  0.2177799999999976  0.4451099999999997  0.0331600000000023   F   F   F
  0.1143095862327915  0.4724142398230932  0.1318376689968962   T   T   T
  0.1677800000000005  0.3951100000000025  0.0820900000000009   F   F   F
  0.0177800000000019  0.4326099999999968  0.1065400000000025   F   F   F
  0.2053516174913984  0.3894527517172093  0.1601440752173833   T   T   T
  0.3177799999999991  0.4826100000000011  0.0576200000000000   F   F   F
  0.4677799999999976  0.4451099999999997  0.0331600000000023   F   F   F
  0.3715966757163222  0.4712269292541202  0.1318211566607931   T   T   T
  0.4177800000000005  0.3951100000000025  0.0820900000000009   F   F   F
  0.2677800000000019  0.4326099999999968  0.1065400000000025   F   F   F
  0.4655313481175461  0.3819538031147091  0.1523143664512493   T   T   T
  0.5677799999999991  0.4826100000000011  0.0576200000000000   F   F   F
  0.7177799999999976  0.4451099999999997  0.0331600000000023   F   F   F
  0.6147864905128670  0.4707174570635461  0.1321554953486924   T   T   T
  0.6677800000000005  0.3951100000000025  0.0820900000000009   F   F   F
  0.5177800000000019  0.4326099999999968  0.1065400000000025   F   F   F
  0.7156943502732003  0.3832029104117497  0.1520398702510242   T   T   T
  0.8177799999999991  0.4826100000000011  0.0576200000000000   F   F   F
  0.9677799999999976  0.4451099999999997  0.0331600000000023   F   F   F
  0.8667082573266669  0.4689376227208653  0.1331389439297466   T   T   T
  0.9177800000000005  0.3951100000000025  0.0820900000000009   F   F   F
  0.7677800000000019  0.4326099999999968  0.1065400000000025   F   F   F
  0.9672518368049314  0.3817062970891967  0.1519377226313792   T   T   T
  0.0677799999999991  0.6076100000000011  0.0576200000000000   F   F   F
  0.2177799999999976  0.5701099999999997  0.0331600000000023   F   F   F
  0.1181387697195387  0.5961100363651078  0.1313787433130186   T   T   T
  0.1677800000000005  0.5201100000000025  0.0820900000000009   F   F   F
  0.0177800000000019  0.5576099999999968  0.1065400000000025   F   F   F
  0.2167488107106867  0.5101413540046329  0.1501429628100160   T   T   T
  0.3177799999999991  0.6076100000000011  0.0576200000000000   F   F   F
  0.4677799999999976  0.5701099999999997  0.0331600000000023   F   F   F
  0.3714047907845971  0.5915869355275541  0.1293634009307393   T   T   T
  0.4177800000000005  0.5201100000000025  0.0820900000000009   F   F   F
  0.2677800000000019  0.5576099999999968  0.1065400000000025   F   F   F
  0.5100164962369362  0.4479967829997940  0.1775018558263063   T   T   T
  0.5677799999999991  0.6076100000000011  0.0576200000000000   F   F   F
  0.7177799999999976  0.5701099999999997  0.0331600000000023   F   F   F
  0.6173931640792405  0.5937642903538939  0.1282847361378159   T   T   T
  0.6677800000000005  0.5201100000000025  0.0820900000000009   F   F   F
  0.5177800000000019  0.5576099999999968  0.1065400000000025   F   F   F
  0.7165785681722305  0.5078604527122036  0.1515621303812453   T   T   T
  0.8177799999999991  0.6076100000000011  0.0576200000000000   F   F   F
  0.9677799999999976  0.5701099999999997  0.0331600000000023   F   F   F
  0.8649615132362656  0.5971861752775073  0.1308642642568142   T   T   T
  0.9177800000000005  0.5201100000000025  0.0820900000000009   F   F   F
  0.7677800000000019  0.5576099999999968  0.1065400000000025   F   F   F
  0.9606480542240821  0.5094066130281321  0.1516357110095500   T   T   T
  0.0677799999999991  0.7326100000000011  0.0576200000000000   F   F   F
  0.2177799999999976  0.6951099999999997  0.0331600000000023   F   F   F
  0.1174825068995690  0.7215276050440366  0.1313368267571190   T   T   T
  0.1677800000000005  0.6451100000000025  0.0820900000000009   F   F   F
  0.0177800000000019  0.6826099999999968  0.1065400000000025   F   F   F
  0.2202604268957284  0.6326460953320966  0.1480010736078571   T   T   T
  0.3177799999999991  0.7326100000000011  0.0576200000000000   F   F   F
  0.4677799999999976  0.6951099999999997  0.0331600000000023   F   F   F
  0.3703122917222590  0.7184338076050082  0.1317344951568439   T   T   T
  0.4177800000000005  0.6451100000000025  0.0820900000000009   F   F   F
  0.2677800000000019  0.6826099999999968  0.1065400000000025   F   F   F
  0.3222171539426209  0.6619516456710325  0.1772678226879799   T   T   T
  0.5677799999999991  0.7326100000000011  0.0576200000000000   F   F   F
  0.7177799999999976  0.6951099999999997  0.0331600000000023   F   F   F
  0.6166286355168290  0.7194380339635909  0.1300213097041049   T   T   T
  0.6677800000000005  0.6451100000000025  0.0820900000000009   F   F   F
  0.5177800000000019  0.6826099999999968  0.1065400000000025   F   F   F
  0.7019311219550729  0.6340473856338392  0.1600931612225992   T   T   T
  0.8177799999999991  0.7326100000000011  0.0576200000000000   F   F   F
  0.9677799999999976  0.6951099999999997  0.0331600000000023   F   F   F
  0.8668213751238631  0.7194917743145708  0.1299221965671835   T   T   T
  0.9177800000000005  0.6451100000000025  0.0820900000000009   F   F   F
  0.7677800000000019  0.6826099999999968  0.1065400000000025   F   F   F
  0.9734448512457857  0.6329029757651737  0.1573695418991708   T   T   T
  0.0677799999999991  0.8576100000000011  0.0576200000000000   F   F   F
  0.2177799999999976  0.8201099999999997  0.0331600000000023   F   F   F
  0.1175716426201808  0.8443895845922215  0.1316583997233359   T   T   T
  0.1677800000000005  0.7701100000000025  0.0820900000000009   F   F   F
  0.0177800000000019  0.8076099999999968  0.1065400000000025   F   F   F
  0.2245815750927813  0.7568662184602938  0.1587384527828149   T   T   T
  0.3177799999999991  0.8576100000000011  0.0576200000000000   F   F   F
  0.4677799999999976  0.8201099999999997  0.0331600000000023   F   F   F
  0.3669642397995053  0.8459444367343462  0.1318275637734733   T   T   T
  0.4177800000000005  0.7701100000000025  0.0820900000000009   F   F   F
  0.2677800000000019  0.8076099999999968  0.1065400000000025   F   F   F
  0.4692419989566513  0.7579700714737053  0.1509470724623374   T   T   T
  0.5677799999999991  0.8576100000000011  0.0576200000000000   F   F   F
  0.7177799999999976  0.8201099999999997  0.0331600000000023   F   F   F
  0.6170625758403399  0.8461044109016813  0.1316968920691196   T   T   T
  0.6677800000000005  0.7701100000000025  0.0820900000000009   F   F   F
  0.5177800000000019  0.8076099999999968  0.1065400000000025   F   F   F
  0.7113861411267278  0.7578773693893625  0.1534708246651295   T   T   T
  0.8177799999999991  0.8576100000000011  0.0576200000000000   F   F   F
  0.9677799999999976  0.8201099999999997  0.0331600000000023   F   F   F
  0.8672236908666802  0.8456565817051699  0.1314022671927793   T   T   T
  0.9177800000000005  0.7701100000000025  0.0820900000000009   F   F   F
  0.7677800000000019  0.8076099999999968  0.1065400000000025   F   F   F
  0.9638140016626657  0.7574991994796022  0.1571869242008033   T   T   T
  0.0677799999999991  0.9826100000000011  0.0576200000000000   F   F   F
  0.2177799999999976  0.9451099999999997  0.0331600000000023   F   F   F
  0.1164510899832065  0.9710651341738753  0.1321662869661999   T   T   T
  0.1677800000000005  0.8951100000000025  0.0820900000000009   F   F   F
  0.0177800000000019  0.9326099999999968  0.1065400000000025   F   F   F
  0.2147611101538001  0.8846830153506652  0.1514828712768410   T   T   T
  0.3177799999999991  0.9826100000000011  0.0576200000000000   F   F   F
  0.4677799999999976  0.9451099999999997  0.0331600000000023   F   F   F
  0.3673513322957965  0.9698267535843672  0.1320467598065648   T   T   T
  0.4177800000000005  0.8951100000000025  0.0820900000000009   F   F   F
  0.2677800000000019  0.9326099999999968  0.1065400000000025   F   F   F
  0.4666058489140307  0.8824019109100216  0.1524770283628822   T   T   T
  0.5677799999999991  0.9826100000000011  0.0576200000000000   F   F   F
  0.7177799999999976  0.9451099999999997  0.0331600000000023   F   F   F
  0.6162073287939596  0.9711898449238799  0.1320903381584650   T   T   T
  0.6677800000000005  0.8951100000000025  0.0820900000000009   F   F   F
  0.5177800000000019  0.9326099999999968  0.1065400000000025   F   F   F
  0.7153842072365830  0.8852036643436402  0.1512432605607107   T   T   T
  0.8177799999999991  0.9826100000000011  0.0576200000000000   F   F   F
  0.9677799999999976  0.9451099999999997  0.0331600000000023   F   F   F
  0.8665313337008480  0.9708364895578884  0.1319982195079366   T   T   T
  0.9177800000000005  0.8951100000000025  0.0820900000000009   F   F   F
  0.7677800000000019  0.9326099999999968  0.1065400000000025   F   F   F
  0.9664399820720722  0.8844854904806901  0.1515662533941658   T   T   T
  0.1133063889646991  0.7229357003940976  0.3534702455486403   T   T   T
  0.0736221070062460  0.7940329564104854  0.2263685675043618   T   T   T
  0.2867660317452880  0.7079628038518497  0.2736883271348050   T   T   T
  0.4500306012499461  0.7325486021403221  0.3410603726699337   T   T   T
  0.3480941669366330  0.6372861058516621  0.3842155750040731   T   T   T
  0.3421202500326774  0.8038930007698366  0.2214625640556482   T   T   T
  0.6088745205578100  0.7362331611642141  0.2512037069012509   T   T   T
  0.8015423236779310  0.7329794617768038  0.3435064735588281   T   T   T
  0.6940369786635420  0.6499576015210912  0.3706213950645110   T   T   T
  0.7997524778610239  0.8018043455428767  0.2256188669566181   T   T   T
  0.0643648659311283  0.5329653322039701  0.2300781586451856   T   T   T
  0.2007046720125417  0.5571088867294555  0.3404821703956660   T   T   T
  0.1239033728328122  0.4490478041359766  0.3802141359559483   T   T   T
  0.1950660964187757  0.6201746423658685  0.2316605932872742   T   T   T
  0.4402610959591862  0.5456180029922859  0.2644367692164713   T   T   T
  0.5798605675554541  0.5666238143870769  0.3432036081401573   T   T   T
  0.4421268988479041  0.4817569201287217  0.3830815203479027   T   T   T
  0.5218091235587298  0.6410978404616546  0.2166628382084518   T   T   T
  0.7523835618323534  0.5568963305999592  0.2578765413718977   T   T   T
  0.9214267313210996  0.5546346066522987  0.3376182161789938   T   T   T
  0.8065408750484532  0.4715051151654756  0.3563645649794723   T   T   T
  0.8303818318592001  0.6575332955436430  0.2271969396618129   T   T   T
  0.1848269287990391  0.3507209506799734  0.2636457861335205   T   T   T
  0.3598818594068826  0.3930215781180449  0.3366136992608163   T   T   T
  0.2791546950273655  0.3097553922857635  0.3888128873305692   T   T   T
  0.3031332863803777  0.4484812461399138  0.2243855164285923   T   T   T
  0.5553994689448580  0.3720255981009630  0.2654440185161053   T   T   T
  0.6708518184378840  0.3968798637674079  0.3560716458997860   T   T   T
  0.5552933945655527  0.3169881838354153  0.3965550002691012   T   T   T
  0.6683616482461402  0.4615748853059672  0.2384341380445392   T   T   T
  0.8556795554002147  0.3543909514136178  0.2824389732343051   T   T   T
  0.8434344050284877  0.3046476757535396  0.4144258793749310   T   T   T
  0.0217699706594192  0.3674964109403098  0.3613786915611095   T   T   T
  0.9502411796582304  0.4446643044960246  0.2462586379861202   T   T   T
 -0.0039823894795511  0.6935957099283601  0.2695185660312553   T   T   T
 -0.0069583338009124  0.6380566767259803  0.3982400734946618   T   T   T
  0.2088570203414857  0.6391181064095949  0.3705929068202156   T   T   T
  0.1318891605720651  0.7165923680214196  0.2743496454545528   T   T   T
  0.5424935050652376  0.6565567227676558  0.3709655140258069   T   T   T
  0.2294838922578837  0.7747236253843069  0.2150197480991634   T   T   T
  0.4487675652369774  0.7301561449862731  0.2582919072899726   T   T   T
  0.3237170681288728  0.7147544455134599  0.3460701107079757   T   T   T
  0.8534182839169401  0.6475736607757809  0.3743887217087162   T   T   T
  0.7200556084651283  0.7502294026816406  0.2086582188014938   T   T   T
  0.8445766037336433  0.7284705802073183  0.2724754982032051   T   T   T
  0.6687571084606250  0.7204635595390303  0.3201357513584756   T   T   T
  0.3103416206378832  0.4808589941644560  0.3696995641855181   T   T   T
 -0.0054010469756793  0.6270875354263562  0.2134130792085667   T   T   T
  0.2013670029240635  0.5409169360940526  0.2588498827729737   T   T   T
  0.0616926473753903  0.5562368335525523  0.3626326561009296   T   T   T
  0.6632671822083791  0.4819436621805548  0.3739126863859146   T   T   T
  0.3446026736710498  0.6288413876290360  0.2280546858768882   T   T   T
  0.5771439610537267  0.5605562306726405  0.2607589759466485   T   T   T
  0.4316347819525998  0.5585797894179866  0.3422107333297138   T   T   T
  0.9726818973226119  0.4615137435113557  0.3615582662739417   T   T   T
  0.6780751735548193  0.6447089275349848  0.2168662612473871   T   T   T
  0.9180661741519759  0.5424289621507319  0.2587812861622413   T   T   T
  0.7500430030198625  0.5660700178282949  0.3331298969307078   T   T   T
  0.4118822442233794  0.3234305132704498  0.3916482229780595   T   T   T
  0.1809866697242658  0.4193601128250011  0.2120994424522307   T   T   T
  0.4075645625406754  0.3877699970244198  0.2634338321621468   T   T   T
  0.2264895616675462  0.3742486519284361  0.3300156365366863   T   T   T
  0.7072678565004638  0.3194324165640381  0.4061387483542218   T   T   T
  0.5200285976183091  0.4588774312802836  0.2319109736730517   T   T   T
  0.7017922040104263  0.3820150029842748  0.2792226925843396   T   T   T
  0.5232989998753459  0.3918308539821271  0.3505103164842883   T   T   T
  0.8130483405630209  0.4518468597070261  0.2742762714415264   T   T   T
  0.8579728213303339  0.3571619765538696  0.3601434478052475   T   T   T
  0.1383649994759073  0.3648846288988605  0.4082227272481798   T   T   T
  0.0393350167589719  0.3678741078441370  0.2841645900804947   T   T   T
  0.9562834570364590  0.7672818385732918  0.2135548326777677   T   T   T
  0.9863697169077177  0.7057754655744058  0.3496387714963582   T   T   T
 
  0.00000000E+00  0.00000000E+00  0.00000000E+00
  0.00000000E+00  0.00000000E+00  0.00000000E+00
  0.00000000E+00  0.00000000E+00  0.00000000E+00
  0.00000000E+00  0.00000000E+00  0.00000000E+00
  0.00000000E+00  0.00000000E+00  0.00000000E+00
  0.00000000E+00  0.00000000E+00  0.00000000E+00
  0.00000000E+00  0.00000000E+00  0.00000000E+00
  0.00000000E+00  0.00000000E+00  0.00000000E+00
  0.00000000E+00  0.00000000E+00  0.00000000E+00
  0.00000000E+00  0.00000000E+00  0.00000000E+00
  0.00000000E+00  0.00000000E+00  0.00000000E+00
  0.00000000E+00  0.00000000E+00  0.00000000E+00
  0.00000000E+00  0.00000000E+00  0.00000000E+00
  0.00000000E+00  0.00000000E+00  0.00000000E+00
  0.00000000E+00  0.00000000E+00  0.00000000E+00
  0.00000000E+00  0.00000000E+00  0.00000000E+00
  0.00000000E+00  0.00000000E+00  0.00000000E+00
  0.00000000E+00  0.00000000E+00  0.00000000E+00
  0.00000000E+00  0.00000000E+00  0.00000000E+00
  0.00000000E+00  0.00000000E+00  0.00000000E+00
  0.00000000E+00  0.00000000E+00  0.00000000E+00
  0.00000000E+00  0.00000000E+00  0.00000000E+00
  0.00000000E+00  0.00000000E+00  0.00000000E+00
  0.00000000E+00  0.00000000E+00  0.00000000E+00
  0.00000000E+00  0.00000000E+00  0.00000000E+00
  0.00000000E+00  0.00000000E+00  0.00000000E+00
  0.00000000E+00  0.00000000E+00  0.00000000E+00
  0.00000000E+00  0.00000000E+00  0.00000000E+00
  0.00000000E+00  0.00000000E+00  0.00000000E+00
  0.00000000E+00  0.00000000E+00  0.00000000E+00
  0.00000000E+00  0.00000000E+00  0.00000000E+00
  0.00000000E+00  0.00000000E+00  0.00000000E+00
  0.00000000E+00  0.00000000E+00  0.00000000E+00
  0.00000000E+00  0.00000000E+00  0.00000000E+00
  0.00000000E+00  0.00000000E+00  0.00000000E+00
  0.00000000E+00  0.00000000E+00  0.00000000E+00
  0.00000000E+00  0.00000000E+00  0.00000000E+00
  0.00000000E+00  0.00000000E+00  0.00000000E+00
  0.00000000E+00  0.00000000E+00  0.00000000E+00
  0.00000000E+00  0.00000000E+00  0.00000000E+00
  0.00000000E+00  0.00000000E+00  0.00000000E+00
  0.00000000E+00  0.00000000E+00  0.00000000E+00
  0.00000000E+00  0.00000000E+00  0.00000000E+00
  0.00000000E+00  0.00000000E+00  0.00000000E+00
  0.00000000E+00  0.00000000E+00  0.00000000E+00
  0.00000000E+00  0.00000000E+00  0.00000000E+00
  0.00000000E+00  0.00000000E+00  0.00000000E+00
  0.00000000E+00  0.00000000E+00  0.00000000E+00
  0.00000000E+00  0.00000000E+00  0.00000000E+00
  0.00000000E+00  0.00000000E+00  0.00000000E+00
  0.00000000E+00  0.00000000E+00  0.00000000E+00
  0.00000000E+00  0.00000000E+00  0.00000000E+00
  0.00000000E+00  0.00000000E+00  0.00000000E+00
  0.00000000E+00  0.00000000E+00  0.00000000E+00
  0.00000000E+00  0.00000000E+00  0.00000000E+00
  0.00000000E+00  0.00000000E+00  0.00000000E+00
  0.00000000E+00  0.00000000E+00  0.00000000E+00
  0.00000000E+00  0.00000000E+00  0.00000000E+00
  0.00000000E+00  0.00000000E+00  0.00000000E+00
  0.00000000E+00  0.00000000E+00  0.00000000E+00
  0.00000000E+00  0.00000000E+00  0.00000000E+00
  0.00000000E+00  0.00000000E+00  0.00000000E+00
  0.00000000E+00  0.00000000E+00  0.00000000E+00
  0.00000000E+00  0.00000000E+00  0.00000000E+00
  0.00000000E+00  0.00000000E+00  0.00000000E+00
  0.00000000E+00  0.00000000E+00  0.00000000E+00
  0.00000000E+00  0.00000000E+00  0.00000000E+00
  0.00000000E+00  0.00000000E+00  0.00000000E+00
  0.00000000E+00  0.00000000E+00  0.00000000E+00
  0.00000000E+00  0.00000000E+00  0.00000000E+00
  0.00000000E+00  0.00000000E+00  0.00000000E+00
  0.00000000E+00  0.00000000E+00  0.00000000E+00
  0.00000000E+00  0.00000000E+00  0.00000000E+00
  0.00000000E+00  0.00000000E+00  0.00000000E+00
  0.00000000E+00  0.00000000E+00  0.00000000E+00
  0.00000000E+00  0.00000000E+00  0.00000000E+00
  0.00000000E+00  0.00000000E+00  0.00000000E+00
  0.00000000E+00  0.00000000E+00  0.00000000E+00
  0.00000000E+00  0.00000000E+00  0.00000000E+00
  0.00000000E+00  0.00000000E+00  0.00000000E+00
  0.00000000E+00  0.00000000E+00  0.00000000E+00
  0.00000000E+00  0.00000000E+00  0.00000000E+00
  0.00000000E+00  0.00000000E+00  0.00000000E+00
  0.00000000E+00  0.00000000E+00  0.00000000E+00
  0.00000000E+00  0.00000000E+00  0.00000000E+00
  0.00000000E+00  0.00000000E+00  0.00000000E+00
  0.00000000E+00  0.00000000E+00  0.00000000E+00
  0.00000000E+00  0.00000000E+00  0.00000000E+00
  0.00000000E+00  0.00000000E+00  0.00000000E+00
  0.00000000E+00  0.00000000E+00  0.00000000E+00
  0.00000000E+00  0.00000000E+00  0.00000000E+00
  0.00000000E+00  0.00000000E+00  0.00000000E+00
  0.00000000E+00  0.00000000E+00  0.00000000E+00
  0.00000000E+00  0.00000000E+00  0.00000000E+00
  0.00000000E+00  0.00000000E+00  0.00000000E+00
  0.00000000E+00  0.00000000E+00  0.00000000E+00
  0.00000000E+00  0.00000000E+00  0.00000000E+00
  0.00000000E+00  0.00000000E+00  0.00000000E+00
  0.00000000E+00  0.00000000E+00  0.00000000E+00
  0.00000000E+00  0.00000000E+00  0.00000000E+00
  0.00000000E+00  0.00000000E+00  0.00000000E+00
  0.00000000E+00  0.00000000E+00  0.00000000E+00
  0.00000000E+00  0.00000000E+00  0.00000000E+00
  0.00000000E+00  0.00000000E+00  0.00000000E+00
  0.00000000E+00  0.00000000E+00  0.00000000E+00
  0.00000000E+00  0.00000000E+00  0.00000000E+00
  0.00000000E+00  0.00000000E+00  0.00000000E+00
  0.00000000E+00  0.00000000E+00  0.00000000E+00
  0.00000000E+00  0.00000000E+00  0.00000000E+00
  0.00000000E+00  0.00000000E+00  0.00000000E+00
  0.00000000E+00  0.00000000E+00  0.00000000E+00
  0.00000000E+00  0.00000000E+00  0.00000000E+00
  0.00000000E+00  0.00000000E+00  0.00000000E+00
  0.00000000E+00  0.00000000E+00  0.00000000E+00
  0.00000000E+00  0.00000000E+00  0.00000000E+00
  0.00000000E+00  0.00000000E+00  0.00000000E+00
  0.00000000E+00  0.00000000E+00  0.00000000E+00
  0.00000000E+00  0.00000000E+00  0.00000000E+00
  0.00000000E+00  0.00000000E+00  0.00000000E+00
  0.00000000E+00  0.00000000E+00  0.00000000E+00
  0.00000000E+00  0.00000000E+00  0.00000000E+00
  0.00000000E+00  0.00000000E+00  0.00000000E+00
  0.00000000E+00  0.00000000E+00  0.00000000E+00
  0.00000000E+00  0.00000000E+00  0.00000000E+00
  0.00000000E+00  0.00000000E+00  0.00000000E+00
  0.00000000E+00  0.00000000E+00  0.00000000E+00
  0.00000000E+00  0.00000000E+00  0.00000000E+00
  0.00000000E+00  0.00000000E+00  0.00000000E+00
  0.00000000E+00  0.00000000E+00  0.00000000E+00
  0.00000000E+00  0.00000000E+00  0.00000000E+00
  0.00000000E+00  0.00000000E+00  0.00000000E+00
  0.00000000E+00  0.00000000E+00  0.00000000E+00
  0.00000000E+00  0.00000000E+00  0.00000000E+00
  0.00000000E+00  0.00000000E+00  0.00000000E+00
  0.00000000E+00  0.00000000E+00  0.00000000E+00
  0.00000000E+00  0.00000000E+00  0.00000000E+00
  0.00000000E+00  0.00000000E+00  0.00000000E+00
  0.00000000E+00  0.00000000E+00  0.00000000E+00
  0.00000000E+00  0.00000000E+00  0.00000000E+00
  0.00000000E+00  0.00000000E+00  0.00000000E+00
  0.00000000E+00  0.00000000E+00  0.00000000E+00
  0.00000000E+00  0.00000000E+00  0.00000000E+00
  0.00000000E+00  0.00000000E+00  0.00000000E+00
  0.00000000E+00  0.00000000E+00  0.00000000E+00
  0.00000000E+00  0.00000000E+00  0.00000000E+00
  0.00000000E+00  0.00000000E+00  0.00000000E+00
  0.00000000E+00  0.00000000E+00  0.00000000E+00
  0.00000000E+00  0.00000000E+00  0.00000000E+00
  0.00000000E+00  0.00000000E+00  0.00000000E+00
  0.00000000E+00  0.00000000E+00  0.00000000E+00
  0.00000000E+00  0.00000000E+00  0.00000000E+00
  0.00000000E+00  0.00000000E+00  0.00000000E+00
  0.00000000E+00  0.00000000E+00  0.00000000E+00
  0.00000000E+00  0.00000000E+00  0.00000000E+00
  0.00000000E+00  0.00000000E+00  0.00000000E+00
  0.00000000E+00  0.00000000E+00  0.00000000E+00
  0.00000000E+00  0.00000000E+00  0.00000000E+00
  0.00000000E+00  0.00000000E+00  0.00000000E+00
  0.00000000E+00  0.00000000E+00  0.00000000E+00
  0.00000000E+00  0.00000000E+00  0.00000000E+00
  0.00000000E+00  0.00000000E+00  0.00000000E+00
  0.00000000E+00  0.00000000E+00  0.00000000E+00
  0.00000000E+00  0.00000000E+00  0.00000000E+00
  0.00000000E+00  0.00000000E+00  0.00000000E+00
  0.00000000E+00  0.00000000E+00  0.00000000E+00
  0.00000000E+00  0.00000000E+00  0.00000000E+00
  0.00000000E+00  0.00000000E+00  0.00000000E+00
  0.00000000E+00  0.00000000E+00  0.00000000E+00
  0.00000000E+00  0.00000000E+00  0.00000000E+00
  0.00000000E+00  0.00000000E+00  0.00000000E+00
  0.00000000E+00  0.00000000E+00  0.00000000E+00
  0.00000000E+00  0.00000000E+00  0.00000000E+00
  0.00000000E+00  0.00000000E+00  0.00000000E+00
  0.00000000E+00  0.00000000E+00  0.00000000E+00
  0.00000000E+00  0.00000000E+00  0.00000000E+00
  0.00000000E+00  0.00000000E+00  0.00000000E+00
  0.00000000E+00  0.00000000E+00  0.00000000E+00
  0.00000000E+00  0.00000000E+00  0.00000000E+00
  0.00000000E+00  0.00000000E+00  0.00000000E+00
  0.00000000E+00  0.00000000E+00  0.00000000E+00
  0.00000000E+00  0.00000000E+00  0.00000000E+00
  0.00000000E+00  0.00000000E+00  0.00000000E+00
  0.00000000E+00  0.00000000E+00  0.00000000E+00
  0.00000000E+00  0.00000000E+00  0.00000000E+00
  0.00000000E+00  0.00000000E+00  0.00000000E+00
  0.00000000E+00  0.00000000E+00  0.00000000E+00
  0.00000000E+00  0.00000000E+00  0.00000000E+00
  0.00000000E+00  0.00000000E+00  0.00000000E+00
  0.00000000E+00  0.00000000E+00  0.00000000E+00
  0.00000000E+00  0.00000000E+00  0.00000000E+00
  0.00000000E+00  0.00000000E+00  0.00000000E+00
  0.00000000E+00  0.00000000E+00  0.00000000E+00
  0.00000000E+00  0.00000000E+00  0.00000000E+00
  0.00000000E+00  0.00000000E+00  0.00000000E+00
  0.00000000E+00  0.00000000E+00  0.00000000E+00
  0.00000000E+00  0.00000000E+00  0.00000000E+00
  0.00000000E+00  0.00000000E+00  0.00000000E+00
  0.00000000E+00  0.00000000E+00  0.00000000E+00
  0.00000000E+00  0.00000000E+00  0.00000000E+00
  0.00000000E+00  0.00000000E+00  0.00000000E+00
  0.00000000E+00  0.00000000E+00  0.00000000E+00
  0.00000000E+00  0.00000000E+00  0.00000000E+00
  0.00000000E+00  0.00000000E+00  0.00000000E+00
  0.00000000E+00  0.00000000E+00  0.00000000E+00
  0.00000000E+00  0.00000000E+00  0.00000000E+00
  0.00000000E+00  0.00000000E+00  0.00000000E+00
  0.00000000E+00  0.00000000E+00  0.00000000E+00
  0.00000000E+00  0.00000000E+00  0.00000000E+00
  0.00000000E+00  0.00000000E+00  0.00000000E+00
  0.00000000E+00  0.00000000E+00  0.00000000E+00
  0.00000000E+00  0.00000000E+00  0.00000000E+00
  0.00000000E+00  0.00000000E+00  0.00000000E+00