Cu  O Ba  C  H                          
   1.00000000000000     
    15.3360000000000003    0.0000000000000000    0.0000000000000000
   -12.7799999999999940   22.1356093207302536    0.0000000000000000
     0.0000000000000000    0.0000000000000000   30.0000000000000000
   Cu   O    Ba   C    H 
   180    37    36     2     3
Selective dynamics
Direct
  0.0045096533204925  0.0403378394760188  0.1392894058938512   T   T   T
  0.1169500000000028  0.0748900000000035  0.0695600000000027   F   F   F
  0.0613999999999990  0.0082200000000014  0.0000000000000000   F   F   F
  0.1718213817336609  0.0404716736731390  0.1392234539909057   T   T   T
  0.2836199999999991  0.0748900000000035  0.0695600000000027   F   F   F
  0.2280599999999993  0.0082200000000014  0.0000000000000000   F   F   F
  0.3387073620548068  0.0407885648886806  0.1391270397860370   T   T   T
  0.4502799999999993  0.0748900000000035  0.0695600000000027   F   F   F
  0.3947300000000027  0.0082200000000014  0.0000000000000000   F   F   F
  0.5055063152561550  0.0410170429019880  0.1391344479185580   T   T   T
  0.6169500000000028  0.0748900000000035  0.0695600000000027   F   F   F
  0.5613999999999990  0.0082200000000014  0.0000000000000000   F   F   F
  0.6720299329650278  0.0410256132423188  0.1392158118521414   T   T   T
  0.7836199999999991  0.0748900000000035  0.0695600000000027   F   F   F
  0.7280599999999993  0.0082200000000014  0.0000000000000000   F   F   F
  0.8381125371771744  0.0406809357003343  0.1391092915068261   T   T   T
  0.9502799999999993  0.0748900000000035  0.0695600000000027   F   F   F
  0.8947300000000027  0.0082200000000014  0.0000000000000000   F   F   F
  0.0023886826472568  0.1389148028197505  0.1391717446560142   T   T   T
  0.1169500000000028  0.1748899999999978  0.0695600000000027   F   F   F
  0.0613999999999990  0.1082200000000029  0.0000000000000000   F   F   F
  0.1687764699738430  0.1376654102980201  0.1383403459403415   T   T   T
  0.2836199999999991  0.1748899999999978  0.0695600000000027   F   F   F
  0.2280599999999993  0.1082200000000029  0.0000000000000000   F   F   F
  0.3379744792426129  0.1395578934722687  0.1382217129613207   T   T   T
  0.4502799999999993  0.1748899999999978  0.0695600000000027   F   F   F
  0.3947300000000027  0.1082200000000029  0.0000000000000000   F   F   F
  0.5041163713663378  0.1394517994843468  0.1391032602818870   T   T   T
  0.6169500000000028  0.1748899999999978  0.0695600000000027   F   F   F
  0.5613999999999990  0.1082200000000029  0.0000000000000000   F   F   F
  0.6712618222402225  0.1394706895073176  0.1390839054071596   T   T   T
  0.7836199999999991  0.1748899999999978  0.0695600000000027   F   F   F
  0.7280599999999993  0.1082200000000029  0.0000000000000000   F   F   F
  0.8374987087375271  0.1397524012185355  0.1390417885921848   T   T   T
  0.9502799999999993  0.1748899999999978  0.0695600000000027   F   F   F
  0.8947300000000027  0.1082200000000029  0.0000000000000000   F   F   F
  0.0033103386919229  0.2385578870295637  0.1386696754993504   T   T   T
  0.1169500000000028  0.2748899999999992  0.0695600000000027   F   F   F
  0.0613999999999990  0.2082199999999972  0.0000000000000000   F   F   F
  0.1656207898445472  0.2361699305640618  0.1375536056455801   T   T   T
  0.2836199999999991  0.2748899999999992  0.0695600000000027   F   F   F
  0.2280599999999993  0.2082199999999972  0.0000000000000000   F   F   F
  0.3352360463693383  0.2377277855583124  0.1403263718477340   T   T   T
  0.4502799999999993  0.2748899999999992  0.0695600000000027   F   F   F
  0.3947300000000027  0.2082199999999972  0.0000000000000000   F   F   F
  0.5046113854731504  0.2385221299631553  0.1376213481876442   T   T   T
  0.6169500000000028  0.2748899999999992  0.0695600000000027   F   F   F
  0.5613999999999990  0.2082199999999972  0.0000000000000000   F   F   F
  0.6692141754505874  0.2369578086905206  0.1384765583513998   T   T   T
  0.7836199999999991  0.2748899999999992  0.0695600000000027   F   F   F
  0.7280599999999993  0.2082199999999972  0.0000000000000000   F   F   F
  0.8363131551601486  0.2383798211429541  0.1384871674929164   T   T   T
  0.9502799999999993  0.2748899999999992  0.0695600000000027   F   F   F
  0.8947300000000027  0.2082199999999972  0.0000000000000000   F   F   F
  0.0001716413599664  0.3355565432374791  0.1402850153751733   T   T   T
  0.1169500000000028  0.3748900000000006  0.0695600000000027   F   F   F
  0.0613999999999990  0.3082199999999986  0.0000000000000000   F   F   F
  0.1688914426065123  0.3374236163152599  0.1395649763979180   T   T   T
  0.2836199999999991  0.3748900000000006  0.0695600000000027   F   F   F
  0.2280599999999993  0.3082199999999986  0.0000000000000000   F   F   F
  0.3354250424636492  0.3351535511060723  0.1445005104892333   T   T   T
  0.4502799999999993  0.3748900000000006  0.0695600000000027   F   F   F
  0.3947300000000027  0.3082199999999986  0.0000000000000000   F   F   F
  0.5056350828695062  0.3370002233537743  0.1389031227423344   T   T   T
  0.6169500000000028  0.3748900000000006  0.0695600000000027   F   F   F
  0.5613999999999990  0.3082199999999986  0.0000000000000000   F   F   F
  0.6698035562749213  0.3368072883697787  0.1401527652613195   T   T   T
  0.7836199999999991  0.3748900000000006  0.0695600000000027   F   F   F
  0.7280599999999993  0.3082199999999986  0.0000000000000000   F   F   F
  0.8349866733409057  0.3372046923187872  0.1397143144938166   T   T   T
  0.9502799999999993  0.3748900000000006  0.0695600000000027   F   F   F
  0.8947300000000027  0.3082199999999986  0.0000000000000000   F   F   F
  0.0072295776409407  0.4431753219777840  0.1392904309666017   T   T   T
  0.1169500000000028  0.4748900000000020  0.0695600000000027   F   F   F
  0.0613999999999990  0.4082200000000000  0.0000000000000000   F   F   F
  0.1734959236369459  0.4434744830469056  0.1398299951385296   T   T   T
  0.2836199999999991  0.4748900000000020  0.0695600000000027   F   F   F
  0.2280599999999993  0.4082200000000000  0.0000000000000000   F   F   F
  0.3392627427448068  0.4408276711523324  0.1381016159372182   T   T   T
  0.4502799999999993  0.4748900000000020  0.0695600000000027   F   F   F
  0.3947300000000027  0.4082200000000000  0.0000000000000000   F   F   F
  0.5063731403992969  0.4423474239389372  0.1394860144575082   T   T   T
  0.6169500000000028  0.4748900000000020  0.0695600000000027   F   F   F
  0.5613999999999990  0.4082200000000000  0.0000000000000000   F   F   F
  0.6744868810076724  0.4441997983244109  0.1402122069409766   T   T   T
  0.7836199999999991  0.4748900000000020  0.0695600000000027   F   F   F
  0.7280599999999993  0.4082200000000000  0.0000000000000000   F   F   F
  0.8386198504667121  0.4409982344836458  0.1386563745216100   T   T   T
  0.9502799999999993  0.4748900000000020  0.0695600000000027   F   F   F
  0.8947300000000027  0.4082200000000000  0.0000000000000000   F   F   F
  0.0090550861701298  0.5428734255818402  0.1400215924882119   T   T   T
  0.1169500000000028  0.5748900000000035  0.0695600000000027   F   F   F
  0.0613999999999990  0.5082200000000014  0.0000000000000000   F   F   F
  0.1744405006586280  0.5438114182586410  0.1343835607491628   T   T   T
  0.2836199999999991  0.5748900000000035  0.0695600000000027   F   F   F
  0.2280599999999993  0.5082200000000014  0.0000000000000000   F   F   F
  0.3384899122041558  0.5429815116814996  0.1395880675155113   T   T   T
  0.4502799999999993  0.5748900000000035  0.0695600000000027   F   F   F
  0.3947300000000027  0.5082200000000014  0.0000000000000000   F   F   F
  0.5087612450858368  0.5425933161617194  0.1399481041099016   T   T   T
  0.6169500000000028  0.5748900000000035  0.0695600000000027   F   F   F
  0.5613999999999990  0.5082200000000014  0.0000000000000000   F   F   F
  0.6739560708208805  0.5437600380837078  0.1340743280698323   T   T   T
  0.7836199999999991  0.5748900000000035  0.0695600000000027   F   F   F
  0.7280599999999993  0.5082200000000014  0.0000000000000000   F   F   F
  0.8387462351749564  0.5432298669644088  0.1395772625095804   T   T   T
  0.9502799999999993  0.5748900000000035  0.0695600000000027   F   F   F
  0.8947300000000027  0.5082200000000014  0.0000000000000000   F   F   F
  0.0108025111976865  0.6477167525361611  0.1446060439622901   T   T   T
  0.1169500000000028  0.6748899999999978  0.0695600000000027   F   F   F
  0.0613999999999990  0.6082200000000029  0.0000000000000000   F   F   F
  0.1755256218612537  0.6446428378694534  0.1395539430392883   T   T   T
  0.2836199999999991  0.6748899999999978  0.0695600000000027   F   F   F
  0.2280599999999993  0.6082200000000029  0.0000000000000000   F   F   F
  0.3410850485127124  0.6447568011917617  0.1391817239868024   T   T   T
  0.4502799999999993  0.6748899999999978  0.0695600000000027   F   F   F
  0.3947300000000027  0.6082200000000029  0.0000000000000000   F   F   F
  0.5107335086766076  0.6476591392740721  0.1442963541322814   T   T   T
  0.6169500000000028  0.6748899999999978  0.0695600000000027   F   F   F
  0.5613999999999990  0.6082200000000029  0.0000000000000000   F   F   F
  0.6753783199541424  0.6445921548756844  0.1395814120512792   T   T   T
  0.7836199999999991  0.6748899999999978  0.0695600000000027   F   F   F
  0.7280599999999993  0.6082200000000029  0.0000000000000000   F   F   F
  0.8410987147574184  0.6445550052909542  0.1393129932374770   T   T   T
  0.9502799999999993  0.6748899999999978  0.0695600000000027   F   F   F
  0.8947300000000027  0.6082200000000029  0.0000000000000000   F   F   F
  0.0103433419607788  0.7461861025479171  0.1347435615209926   T   T   T
  0.1169500000000028  0.7748899999999992  0.0695600000000027   F   F   F
  0.0613999999999990  0.7082199999999972  0.0000000000000000   F   F   F
  0.1753239769490980  0.7461207855022135  0.1344875404418536   T   T   T
  0.2836199999999991  0.7748899999999992  0.0695600000000027   F   F   F
  0.2280599999999993  0.7082199999999972  0.0000000000000000   F   F   F
  0.3416899036824908  0.7447428222678507  0.1399053424185381   T   T   T
  0.4502799999999993  0.7748899999999992  0.0695600000000027   F   F   F
  0.3947300000000027  0.7082199999999972  0.0000000000000000   F   F   F
  0.5103465600193708  0.7461686928802899  0.1346861650129338   T   T   T
  0.6169500000000028  0.7748899999999992  0.0695600000000027   F   F   F
  0.5613999999999990  0.7082199999999972  0.0000000000000000   F   F   F
  0.6754063226601069  0.7462133068385692  0.1345258394476215   T   T   T
  0.7836199999999991  0.7748899999999992  0.0695600000000027   F   F   F
  0.7280599999999993  0.7082199999999972  0.0000000000000000   F   F   F
  0.8415129512469800  0.7445631120611814  0.1397306036400612   T   T   T
  0.9502799999999993  0.7748899999999992  0.0695600000000027   F   F   F
  0.8947300000000027  0.7082199999999972  0.0000000000000000   F   F   F
  0.0068085422364925  0.8431239545295514  0.1400766954473645   T   T   T
  0.1169500000000028  0.8748900000000006  0.0695600000000027   F   F   F
  0.0613999999999990  0.8082199999999986  0.0000000000000000   F   F   F
  0.1742839332658015  0.8437874219859341  0.1404302557650191   T   T   T
  0.2836199999999991  0.8748900000000006  0.0695600000000027   F   F   F
  0.2280599999999993  0.8082199999999986  0.0000000000000000   F   F   F
  0.3404324106872672  0.8432093430735627  0.1401141873722034   T   T   T
  0.4502799999999993  0.8748900000000006  0.0695600000000027   F   F   F
  0.3947300000000027  0.8082199999999986  0.0000000000000000   F   F   F
  0.5070091735319100  0.8431514293029041  0.1400769077112563   T   T   T
  0.6169500000000028  0.8748900000000006  0.0695600000000027   F   F   F
  0.5613999999999990  0.8082199999999986  0.0000000000000000   F   F   F
  0.6741099417952062  0.8438151048898669  0.1404322632849779   T   T   T
  0.7836199999999991  0.8748900000000006  0.0695600000000027   F   F   F
  0.7280599999999993  0.8082199999999986  0.0000000000000000   F   F   F
  0.8403080910807000  0.8431127430502545  0.1402141273955506   T   T   T
  0.9502799999999993  0.8748900000000006  0.0695600000000027   F   F   F
  0.8947300000000027  0.8082199999999986  0.0000000000000000   F   F   F
  0.0057857394015447  0.9416706999394808  0.1394732070546043   T   T   T
  0.1169500000000028  0.9748900000000020  0.0695600000000027   F   F   F
  0.0613999999999990  0.9082200000000000  0.0000000000000000   F   F   F
  0.1725428991386421  0.9418192486738991  0.1396150588415223   T   T   T
  0.2836199999999991  0.9748900000000020  0.0695600000000027   F   F   F
  0.2280599999999993  0.9082200000000000  0.0000000000000000   F   F   F
  0.3395544301389342  0.9419689898934188  0.1394616275641592   T   T   T
  0.4502799999999993  0.9748900000000020  0.0695600000000027   F   F   F
  0.3947300000000027  0.9082200000000000  0.0000000000000000   F   F   F
  0.5059661779440954  0.9418203886726930  0.1391755408449025   T   T   T
  0.6169500000000028  0.9748900000000020  0.0695600000000027   F   F   F
  0.5613999999999990  0.9082200000000000  0.0000000000000000   F   F   F
  0.6723957477934450  0.9418621829386963  0.1394460469864768   T   T   T
  0.7836199999999991  0.9748900000000020  0.0695600000000027   F   F   F
  0.7280599999999993  0.9082200000000000  0.0000000000000000   F   F   F
  0.8392231009710472  0.9416941520524331  0.1395776862239256   T   T   T
  0.9502799999999993  0.9748900000000020  0.0695600000000027   F   F   F
  0.8947300000000027  0.9082200000000000  0.0000000000000000   F   F   F
  0.2786609069514051  0.3778808146713490  0.1856636644332289   T   T   T
  0.5531351140822787  0.4006771621500604  0.1836730989659566   T   T   T
  0.7828817401068211  0.3749897089300058  0.1856885984313632   T   T   T
  0.0535788587791006  0.4008942754669004  0.1837596224566259   T   T   T
  0.1085905738050877  0.4695414989788842  0.2961877563798816   T   T   T
  0.2670096854920490  0.5100026358486304  0.1969487872455348   T   T   T
  0.3564388329255488  0.4679097101882538  0.2975946053527986   T   T   T
  0.5137058359445490  0.5081757602052698  0.1980557148789673   T   T   T
  0.6092843609986640  0.4691990637473525  0.2955598943737255   T   T   T
  0.7681398320112108  0.5072503019794847  0.1968183961381730   T   T   T
  0.8565629569723980  0.4668453897290102  0.2972231603441617   T   T   T
  0.0141968223864061  0.5080535389720912  0.1982285880293067   T   T   T
  0.1047173663987137  0.6122614360328282  0.3061318352390783   T   T   T
  0.2838058682571674  0.6775516928928823  0.1944957377498028   T   T   T
  0.1960793836826152  0.5759665189859630  0.4081973907966401   T   T   T
  0.3522159434281298  0.6130514983731782  0.3049996454831980   T   T   T
  0.5322480964165280  0.6753100935536256  0.2094751823343134   T   T   T
  0.4461913796112312  0.5763742062116026  0.4065649661412840   T   T   T
  0.6060200597150825  0.6130535900972631  0.3052020775534797   T   T   T
  0.7826384128727051  0.6763113441146975  0.1945663822136416   T   T   T
  0.6951721066565657  0.5747715725264112  0.4071592228368726   T   T   T
  0.8512809402247846  0.6126625984759156  0.3045679415764839   T   T   T
  0.0337074364276818  0.6750346986575995  0.2100049120489665   T   T   T
  0.9469391513502534  0.5764868161816949  0.4066044463398436   T   T   T
  0.1187820224980541  0.7806104597876247  0.3043062360472293   T   T   T
  0.1936494994338971  0.7230718986793394  0.4145774658925888   T   T   T
  0.3704072725784685  0.7785494342885753  0.3048371097822135   T   T   T
  0.4376842316171808  0.7180621058711921  0.4191456721835852   T   T   T
  0.6209719148419075  0.7811836692348044  0.3048585269990747   T   T   T
  0.6892510125050991  0.7181791893779998  0.4168728582722599   T   T   T
  0.8712457791226245  0.7801270756142852  0.3046863853384162   T   T   T
  0.9364583651880208  0.7159693319267286  0.4195419335189874   T   T   T
  0.1929061904532203  0.8794379190886510  0.4060433695800693   T   T   T
  0.4417771813443332  0.8786603696898091  0.4091894674238664   T   T   T
  0.6929294744327332  0.8793113825473209  0.4064480709457747   T   T   T
  0.9416557877988705  0.8791807332701185  0.4064201272065964   T   T   T
  0.3268476081439869  0.2545176692403852  0.2753733687367902   T   T   T
  0.2678069574956674  0.5106149871162076  0.3467403499508823   T   T   T
  0.1858801135247883  0.4111368091690409  0.2425864268116509   T   T   T
  0.5187912982857874  0.5098823760918527  0.3459996688302306   T   T   T
  0.4320703893961966  0.4086139576671905  0.2425712351588733   T   T   T
  0.7667871273782467  0.5097906078902646  0.3461148198077488   T   T   T
  0.6851366051206157  0.4087860380389003  0.2421678854839954   T   T   T
  0.0178596745903284  0.5096819615983148  0.3467866156517979   T   T   T
  0.9342232056832741  0.4096685901642707  0.2421760912673517   T   T   T
  0.1000047951927831  0.6114210054739706  0.4519514773853281   T   T   T
  0.2774796907937890  0.6702417329834796  0.3463479303813901   T   T   T
  0.1908673730938759  0.5692709418751429  0.2381370182010278   T   T   T
  0.3489806679666664  0.6087057820938847  0.4536017666129279   T   T   T
  0.5272088430716885  0.6701181583959557  0.3440564281357197   T   T   T
  0.4400674572104308  0.5672795912767734  0.2402906796218839   T   T   T
  0.5984241436890635  0.6088761415361951  0.4524183197208816   T   T   T
  0.7773688839981624  0.6703871138288638  0.3460908293401949   T   T   T
  0.6904640621096942  0.5673119446928522  0.2373759809089742   T   T   T
  0.8473441824581853  0.6072644323119866  0.4533959973791440   T   T   T
  0.0255592812829536  0.6698129500759168  0.3437131347116086   T   T   T
  0.9399472493453757  0.5669195896411006  0.2404070857254160   T   T   T
  0.1108227001139530  0.7766815340453800  0.4516586813358693   T   T   T
  0.2929118751059096  0.8355184673512180  0.3392493461061044   T   T   T
  0.2116609873347394  0.7405635740199912  0.2332884390634652   T   T   T
  0.3621730664593537  0.7764725350086115  0.4545434734198912   T   T   T
  0.5485989750434224  0.8423422920708488  0.3338663843395265   T   T   T
  0.4584196522291312  0.7380560249994115  0.2338869888510380   T   T   T
  0.6121637304944221  0.7762544492937318  0.4515541073878371   T   T   T
  0.7988955453750242  0.8419032683906765  0.3344714244416535   T   T   T
  0.7100694500482002  0.7382746192042825  0.2335044362807279   T   T   T
  0.8617596679374785  0.7762523386688536  0.4518491976787963   T   T   T
  0.0513243781166922  0.8451615379216888  0.3306643403977085   T   T   T
  0.9572599710519091  0.7364387554655001  0.2337560811029448   T   T   T
  0.1194248943923804  0.9423154521729810  0.4338882455124459   T   T   T
  0.3699260717188137  0.9430602833140258  0.4356421104813298   T   T   T
  0.6199838458426900  0.9422522469494949  0.4356265632206326   T   T   T
  0.8694746622773110  0.9421014325455005  0.4358388841136029   T   T   T
  0.3562054340993555  0.2673506718418528  0.2307432568123116   T   T   T
  0.2984050508602267  0.2676365599028253  0.1966227495148659   T   T   T
  0.4337846372591296  0.2767587916738884  0.2269856906994676   T   T   T
  0.2533831383859638  0.2353016089786488  0.2762109546893464   T   T   T
  0.2218143248893409  0.2559011354371351  0.2081902473265084   T   T   T
 
  0.00000000E+00  0.00000000E+00  0.00000000E+00
  0.00000000E+00  0.00000000E+00  0.00000000E+00
  0.00000000E+00  0.00000000E+00  0.00000000E+00
  0.00000000E+00  0.00000000E+00  0.00000000E+00
  0.00000000E+00  0.00000000E+00  0.00000000E+00
  0.00000000E+00  0.00000000E+00  0.00000000E+00
  0.00000000E+00  0.00000000E+00  0.00000000E+00
  0.00000000E+00  0.00000000E+00  0.00000000E+00
  0.00000000E+00  0.00000000E+00  0.00000000E+00
  0.00000000E+00  0.00000000E+00  0.00000000E+00
  0.00000000E+00  0.00000000E+00  0.00000000E+00
  0.00000000E+00  0.00000000E+00  0.00000000E+00
  0.00000000E+00  0.00000000E+00  0.00000000E+00
  0.00000000E+00  0.00000000E+00  0.00000000E+00
  0.00000000E+00  0.00000000E+00  0.00000000E+00
  0.00000000E+00  0.00000000E+00  0.00000000E+00
  0.00000000E+00  0.00000000E+00  0.00000000E+00
  0.00000000E+00  0.00000000E+00  0.00000000E+00
  0.00000000E+00  0.00000000E+00  0.00000000E+00
  0.00000000E+00  0.00000000E+00  0.00000000E+00
  0.00000000E+00  0.00000000E+00  0.00000000E+00
  0.00000000E+00  0.00000000E+00  0.00000000E+00
  0.00000000E+00  0.00000000E+00  0.00000000E+00
  0.00000000E+00  0.00000000E+00  0.00000000E+00
  0.00000000E+00  0.00000000E+00  0.00000000E+00
  0.00000000E+00  0.00000000E+00  0.00000000E+00
  0.00000000E+00  0.00000000E+00  0.00000000E+00
  0.00000000E+00  0.00000000E+00  0.00000000E+00
  0.00000000E+00  0.00000000E+00  0.00000000E+00
  0.00000000E+00  0.00000000E+00  0.00000000E+00
  0.00000000E+00  0.00000000E+00  0.00000000E+00
  0.00000000E+00  0.00000000E+00  0.00000000E+00
  0.00000000E+00  0.00000000E+00  0.00000000E+00
  0.00000000E+00  0.00000000E+00  0.00000000E+00
  0.00000000E+00  0.00000000E+00  0.00000000E+00
  0.00000000E+00  0.00000000E+00  0.00000000E+00
  0.00000000E+00  0.00000000E+00  0.00000000E+00
  0.00000000E+00  0.00000000E+00  0.00000000E+00
  0.00000000E+00  0.00000000E+00  0.00000000E+00
  0.00000000E+00  0.00000000E+00  0.00000000E+00
  0.00000000E+00  0.00000000E+00  0.00000000E+00
  0.00000000E+00  0.00000000E+00  0.00000000E+00
  0.00000000E+00  0.00000000E+00  0.00000000E+00
  0.00000000E+00  0.00000000E+00  0.00000000E+00
  0.00000000E+00  0.00000000E+00  0.00000000E+00
  0.00000000E+00  0.00000000E+00  0.00000000E+00
  0.00000000E+00  0.00000000E+00  0.00000000E+00
  0.00000000E+00  0.00000000E+00  0.00000000E+00
  0.00000000E+00  0.00000000E+00  0.00000000E+00
  0.00000000E+00  0.00000000E+00  0.00000000E+00
  0.00000000E+00  0.00000000E+00  0.00000000E+00
  0.00000000E+00  0.00000000E+00  0.00000000E+00
  0.00000000E+00  0.00000000E+00  0.00000000E+00
  0.00000000E+00  0.00000000E+00  0.00000000E+00
  0.00000000E+00  0.00000000E+00  0.00000000E+00
  0.00000000E+00  0.00000000E+00  0.00000000E+00
  0.00000000E+00  0.00000000E+00  0.00000000E+00
  0.00000000E+00  0.00000000E+00  0.00000000E+00
  0.00000000E+00  0.00000000E+00  0.00000000E+00
  0.00000000E+00  0.00000000E+00  0.00000000E+00
  0.00000000E+00  0.00000000E+00  0.00000000E+00
  0.00000000E+00  0.00000000E+00  0.00000000E+00
  0.00000000E+00  0.00000000E+00  0.00000000E+00
  0.00000000E+00  0.00000000E+00  0.00000000E+00
  0.00000000E+00  0.00000000E+00  0.00000000E+00
  0.00000000E+00  0.00000000E+00  0.00000000E+00
  0.00000000E+00  0.00000000E+00  0.00000000E+00
  0.00000000E+00  0.00000000E+00  0.00000000E+00
  0.00000000E+00  0.00000000E+00  0.00000000E+00
  0.00000000E+00  0.00000000E+00  0.00000000E+00
  0.00000000E+00  0.00000000E+00  0.00000000E+00
  0.00000000E+00  0.00000000E+00  0.00000000E+00
  0.00000000E+00  0.00000000E+00  0.00000000E+00
  0.00000000E+00  0.00000000E+00  0.00000000E+00
  0.00000000E+00  0.00000000E+00  0.00000000E+00
  0.00000000E+00  0.00000000E+00  0.00000000E+00
  0.00000000E+00  0.00000000E+00  0.00000000E+00
  0.00000000E+00  0.00000000E+00  0.00000000E+00
  0.00000000E+00  0.00000000E+00  0.00000000E+00
  0.00000000E+00  0.00000000E+00  0.00000000E+00
  0.00000000E+00  0.00000000E+00  0.00000000E+00
  0.00000000E+00  0.00000000E+00  0.00000000E+00
  0.00000000E+00  0.00000000E+00  0.00000000E+00
  0.00000000E+00  0.00000000E+00  0.00000000E+00
  0.00000000E+00  0.00000000E+00  0.00000000E+00
  0.00000000E+00  0.00000000E+00  0.00000000E+00
  0.00000000E+00  0.00000000E+00  0.00000000E+00
  0.00000000E+00  0.00000000E+00  0.00000000E+00
  0.00000000E+00  0.00000000E+00  0.00000000E+00
  0.00000000E+00  0.00000000E+00  0.00000000E+00
  0.00000000E+00  0.00000000E+00  0.00000000E+00
  0.00000000E+00  0.00000000E+00  0.00000000E+00
  0.00000000E+00  0.00000000E+00  0.00000000E+00
  0.00000000E+00  0.00000000E+00  0.00000000E+00
  0.00000000E+00  0.00000000E+00  0.00000000E+00
  0.00000000E+00  0.00000000E+00  0.00000000E+00
  0.00000000E+00  0.00000000E+00  0.00000000E+00
  0.00000000E+00  0.00000000E+00  0.00000000E+00
  0.00000000E+00  0.00000000E+00  0.00000000E+00
  0.00000000E+00  0.00000000E+00  0.00000000E+00
  0.00000000E+00  0.00000000E+00  0.00000000E+00
  0.00000000E+00  0.00000000E+00  0.00000000E+00
  0.00000000E+00  0.00000000E+00  0.00000000E+00
  0.00000000E+00  0.00000000E+00  0.00000000E+00
  0.00000000E+00  0.00000000E+00  0.00000000E+00
  0.00000000E+00  0.00000000E+00  0.00000000E+00
  0.00000000E+00  0.00000000E+00  0.00000000E+00
  0.00000000E+00  0.00000000E+00  0.00000000E+00
  0.00000000E+00  0.00000000E+00  0.00000000E+00
  0.00000000E+00  0.00000000E+00  0.00000000E+00
  0.00000000E+00  0.00000000E+00  0.00000000E+00
  0.00000000E+00  0.00000000E+00  0.00000000E+00
  0.00000000E+00  0.00000000E+00  0.00000000E+00
  0.00000000E+00  0.00000000E+00  0.00000000E+00
  0.00000000E+00  0.00000000E+00  0.00000000E+00
  0.00000000E+00  0.00000000E+00  0.00000000E+00
  0.00000000E+00  0.00000000E+00  0.00000000E+00
  0.00000000E+00  0.00000000E+00  0.00000000E+00
  0.00000000E+00  0.00000000E+00  0.00000000E+00
  0.00000000E+00  0.00000000E+00  0.00000000E+00
  0.00000000E+00  0.00000000E+00  0.00000000E+00
  0.00000000E+00  0.00000000E+00  0.00000000E+00
  0.00000000E+00  0.00000000E+00  0.00000000E+00
  0.00000000E+00  0.00000000E+00  0.00000000E+00
  0.00000000E+00  0.00000000E+00  0.00000000E+00
  0.00000000E+00  0.00000000E+00  0.00000000E+00
  0.00000000E+00  0.00000000E+00  0.00000000E+00
  0.00000000E+00  0.00000000E+00  0.00000000E+00
  0.00000000E+00  0.00000000E+00  0.00000000E+00
  0.00000000E+00  0.00000000E+00  0.00000000E+00
  0.00000000E+00  0.00000000E+00  0.00000000E+00
  0.00000000E+00  0.00000000E+00  0.00000000E+00
  0.00000000E+00  0.00000000E+00  0.00000000E+00
  0.00000000E+00  0.00000000E+00  0.00000000E+00
  0.00000000E+00  0.00000000E+00  0.00000000E+00
  0.00000000E+00  0.00000000E+00  0.00000000E+00
  0.00000000E+00  0.00000000E+00  0.00000000E+00
  0.00000000E+00  0.00000000E+00  0.00000000E+00
  0.00000000E+00  0.00000000E+00  0.00000000E+00
  0.00000000E+00  0.00000000E+00  0.00000000E+00
  0.00000000E+00  0.00000000E+00  0.00000000E+00
  0.00000000E+00  0.00000000E+00  0.00000000E+00
  0.00000000E+00  0.00000000E+00  0.00000000E+00
  0.00000000E+00  0.00000000E+00  0.00000000E+00
  0.00000000E+00  0.00000000E+00  0.00000000E+00
  0.00000000E+00  0.00000000E+00  0.00000000E+00
  0.00000000E+00  0.00000000E+00  0.00000000E+00
  0.00000000E+00  0.00000000E+00  0.00000000E+00
  0.00000000E+00  0.00000000E+00  0.00000000E+00
  0.00000000E+00  0.00000000E+00  0.00000000E+00
  0.00000000E+00  0.00000000E+00  0.00000000E+00
  0.00000000E+00  0.00000000E+00  0.00000000E+00
  0.00000000E+00  0.00000000E+00  0.00000000E+00
  0.00000000E+00  0.00000000E+00  0.00000000E+00
  0.00000000E+00  0.00000000E+00  0.00000000E+00
  0.00000000E+00  0.00000000E+00  0.00000000E+00
  0.00000000E+00  0.00000000E+00  0.00000000E+00
  0.00000000E+00  0.00000000E+00  0.00000000E+00
  0.00000000E+00  0.00000000E+00  0.00000000E+00
  0.00000000E+00  0.00000000E+00  0.00000000E+00
  0.00000000E+00  0.00000000E+00  0.00000000E+00
  0.00000000E+00  0.00000000E+00  0.00000000E+00
  0.00000000E+00  0.00000000E+00  0.00000000E+00
  0.00000000E+00  0.00000000E+00  0.00000000E+00
  0.00000000E+00  0.00000000E+00  0.00000000E+00
  0.00000000E+00  0.00000000E+00  0.00000000E+00
  0.00000000E+00  0.00000000E+00  0.00000000E+00
  0.00000000E+00  0.00000000E+00  0.00000000E+00
  0.00000000E+00  0.00000000E+00  0.00000000E+00
  0.00000000E+00  0.00000000E+00  0.00000000E+00
  0.00000000E+00  0.00000000E+00  0.00000000E+00
  0.00000000E+00  0.00000000E+00  0.00000000E+00
  0.00000000E+00  0.00000000E+00  0.00000000E+00
  0.00000000E+00  0.00000000E+00  0.00000000E+00
  0.00000000E+00  0.00000000E+00  0.00000000E+00
  0.00000000E+00  0.00000000E+00  0.00000000E+00
  0.00000000E+00  0.00000000E+00  0.00000000E+00
  0.00000000E+00  0.00000000E+00  0.00000000E+00
  0.00000000E+00  0.00000000E+00  0.00000000E+00
  0.00000000E+00  0.00000000E+00  0.00000000E+00
  0.00000000E+00  0.00000000E+00  0.00000000E+00
  0.00000000E+00  0.00000000E+00  0.00000000E+00
  0.00000000E+00  0.00000000E+00  0.00000000E+00
  0.00000000E+00  0.00000000E+00  0.00000000E+00
  0.00000000E+00  0.00000000E+00  0.00000000E+00
  0.00000000E+00  0.00000000E+00  0.00000000E+00
  0.00000000E+00  0.00000000E+00  0.00000000E+00
  0.00000000E+00  0.00000000E+00  0.00000000E+00
  0.00000000E+00  0.00000000E+00  0.00000000E+00
  0.00000000E+00  0.00000000E+00  0.00000000E+00
  0.00000000E+00  0.00000000E+00  0.00000000E+00
  0.00000000E+00  0.00000000E+00  0.00000000E+00
  0.00000000E+00  0.00000000E+00  0.00000000E+00
  0.00000000E+00  0.00000000E+00  0.00000000E+00
  0.00000000E+00  0.00000000E+00  0.00000000E+00
  0.00000000E+00  0.00000000E+00  0.00000000E+00
  0.00000000E+00  0.00000000E+00  0.00000000E+00
  0.00000000E+00  0.00000000E+00  0.00000000E+00
  0.00000000E+00  0.00000000E+00  0.00000000E+00
  0.00000000E+00  0.00000000E+00  0.00000000E+00
  0.00000000E+00  0.00000000E+00  0.00000000E+00
  0.00000000E+00  0.00000000E+00  0.00000000E+00
  0.00000000E+00  0.00000000E+00  0.00000000E+00
  0.00000000E+00  0.00000000E+00  0.00000000E+00
  0.00000000E+00  0.00000000E+00  0.00000000E+00
  0.00000000E+00  0.00000000E+00  0.00000000E+00
  0.00000000E+00  0.00000000E+00  0.00000000E+00
  0.00000000E+00  0.00000000E+00  0.00000000E+00
  0.00000000E+00  0.00000000E+00  0.00000000E+00
  0.00000000E+00  0.00000000E+00  0.00000000E+00
  0.00000000E+00  0.00000000E+00  0.00000000E+00
  0.00000000E+00  0.00000000E+00  0.00000000E+00
  0.00000000E+00  0.00000000E+00  0.00000000E+00
  0.00000000E+00  0.00000000E+00  0.00000000E+00
  0.00000000E+00  0.00000000E+00  0.00000000E+00
  0.00000000E+00  0.00000000E+00  0.00000000E+00
  0.00000000E+00  0.00000000E+00  0.00000000E+00
  0.00000000E+00  0.00000000E+00  0.00000000E+00
  0.00000000E+00  0.00000000E+00  0.00000000E+00
  0.00000000E+00  0.00000000E+00  0.00000000E+00