Cu  O Ba                                
   1.00000000000000     
    15.3360000000000003    0.0000000000000000    0.0000000000000000
   -12.7799999999999940   22.1356093207302536    0.0000000000000000
     0.0000000000000000    0.0000000000000000   30.0000000000000000
   Cu   O    Ba
   180    36    36
Selective dynamics
Direct
  0.0058295089032593  0.0415759634263071  0.1390996273512830   T   T   T
  0.1169500000000028  0.0748900000000035  0.0695600000000027   F   F   F
  0.0613999999999990  0.0082200000000014  0.0000000000000000   F   F   F
  0.1725332686713425  0.0415875507266364  0.1391345122719009   T   T   T
  0.2836199999999991  0.0748900000000035  0.0695600000000027   F   F   F
  0.2280599999999993  0.0082200000000014  0.0000000000000000   F   F   F
  0.3391750357694595  0.0415271414629996  0.1391113554857184   T   T   T
  0.4502799999999993  0.0748900000000035  0.0695600000000027   F   F   F
  0.3947300000000027  0.0082200000000014  0.0000000000000000   F   F   F
  0.5058396889941892  0.0415814942963860  0.1390999574682849   T   T   T
  0.6169500000000028  0.0748900000000035  0.0695600000000027   F   F   F
  0.5613999999999990  0.0082200000000014  0.0000000000000000   F   F   F
  0.6725341787414039  0.0415865964071860  0.1391332843357492   T   T   T
  0.7836199999999991  0.0748900000000035  0.0695600000000027   F   F   F
  0.7280599999999993  0.0082200000000014  0.0000000000000000   F   F   F
  0.8391846695286684  0.0415179527045182  0.1391010677697011   T   T   T
  0.9502799999999993  0.0748900000000035  0.0695600000000027   F   F   F
  0.8947300000000027  0.0082200000000014  0.0000000000000000   F   F   F
  0.0056124441319590  0.1414310084371663  0.1389994895728563   T   T   T
  0.1169500000000028  0.1748899999999978  0.0695600000000027   F   F   F
  0.0613999999999990  0.1082200000000029  0.0000000000000000   F   F   F
  0.1725286199032419  0.1414744798043680  0.1390138443531255   T   T   T
  0.2836199999999991  0.1748899999999978  0.0695600000000027   F   F   F
  0.2280599999999993  0.1082200000000029  0.0000000000000000   F   F   F
  0.3390676480791491  0.1414999045778192  0.1389252138523529   T   T   T
  0.4502799999999993  0.1748899999999978  0.0695600000000027   F   F   F
  0.3947300000000027  0.1082200000000029  0.0000000000000000   F   F   F
  0.5055803744427849  0.1414182593088692  0.1390087179865792   T   T   T
  0.6169500000000028  0.1748899999999978  0.0695600000000027   F   F   F
  0.5613999999999990  0.1082200000000029  0.0000000000000000   F   F   F
  0.6725660520303091  0.1414845282203260  0.1390046386026216   T   T   T
  0.7836199999999991  0.1748899999999978  0.0695600000000027   F   F   F
  0.7280599999999993  0.1082200000000029  0.0000000000000000   F   F   F
  0.8390287311526485  0.1414982475218280  0.1389408393648460   T   T   T
  0.9502799999999993  0.1748899999999978  0.0695600000000027   F   F   F
  0.8947300000000027  0.1082200000000029  0.0000000000000000   F   F   F
  0.0058446269437753  0.2408488959406317  0.1386231641022916   T   T   T
  0.1169500000000028  0.2748899999999992  0.0695600000000027   F   F   F
  0.0613999999999990  0.2082199999999972  0.0000000000000000   F   F   F
  0.1716816390349687  0.2404793442753199  0.1388239518520620   T   T   T
  0.2836199999999991  0.2748899999999992  0.0695600000000027   F   F   F
  0.2280599999999993  0.2082199999999972  0.0000000000000000   F   F   F
  0.3380245553521511  0.2408730871704471  0.1386897279231346   T   T   T
  0.4502799999999993  0.2748899999999992  0.0695600000000027   F   F   F
  0.3947300000000027  0.2082199999999972  0.0000000000000000   F   F   F
  0.5059704517402236  0.2409396118164473  0.1386670775200587   T   T   T
  0.6169500000000028  0.2748899999999992  0.0695600000000027   F   F   F
  0.5613999999999990  0.2082199999999972  0.0000000000000000   F   F   F
  0.6715533356531646  0.2404807050540849  0.1388230674636841   T   T   T
  0.7836199999999991  0.2748899999999992  0.0695600000000027   F   F   F
  0.7280599999999993  0.2082199999999972  0.0000000000000000   F   F   F
  0.8381529880433466  0.2409314831954250  0.1386633297686737   T   T   T
  0.9502799999999993  0.2748899999999992  0.0695600000000027   F   F   F
  0.8947300000000027  0.2082199999999972  0.0000000000000000   F   F   F
  0.0030478740135459  0.3385622059183099  0.1406555409453276   T   T   T
  0.1169500000000028  0.3748900000000006  0.0695600000000027   F   F   F
  0.0613999999999990  0.3082199999999986  0.0000000000000000   F   F   F
  0.1740115469589636  0.3407136177623303  0.1417420385289626   T   T   T
  0.2836199999999991  0.3748900000000006  0.0695600000000027   F   F   F
  0.2280599999999993  0.3082199999999986  0.0000000000000000   F   F   F
  0.3365068412093434  0.3407373929374191  0.1409122112390354   T   T   T
  0.4502799999999993  0.3748900000000006  0.0695600000000027   F   F   F
  0.3947300000000027  0.3082199999999986  0.0000000000000000   F   F   F
  0.5035673777899881  0.3387175380958684  0.1410017535485685   T   T   T
  0.6169500000000028  0.3748900000000006  0.0695600000000027   F   F   F
  0.5613999999999990  0.3082199999999986  0.0000000000000000   F   F   F
  0.6738638613263399  0.3407253115517670  0.1412062517774316   T   T   T
  0.7836199999999991  0.3748900000000006  0.0695600000000027   F   F   F
  0.7280599999999993  0.3082199999999986  0.0000000000000000   F   F   F
  0.8365557470164570  0.3408285782634433  0.1413531713287596   T   T   T
  0.9502799999999993  0.3748900000000006  0.0695600000000027   F   F   F
  0.8947300000000027  0.3082199999999986  0.0000000000000000   F   F   F
  0.0070263241232384  0.4409134118118369  0.1379207233070711   T   T   T
  0.1169500000000028  0.4748900000000020  0.0695600000000027   F   F   F
  0.0613999999999990  0.4082200000000000  0.0000000000000000   F   F   F
  0.1693375399386368  0.4404837484732479  0.1389020478834032   T   T   T
  0.2836199999999991  0.4748900000000020  0.0695600000000027   F   F   F
  0.2280599999999993  0.4082200000000000  0.0000000000000000   F   F   F
  0.3387612054080882  0.4406923984320755  0.1403470502992403   T   T   T
  0.4502799999999993  0.4748900000000020  0.0695600000000027   F   F   F
  0.3947300000000027  0.4082200000000000  0.0000000000000000   F   F   F
  0.5073472119890284  0.4406928624800622  0.1386967806723557   T   T   T
  0.6169500000000028  0.4748900000000020  0.0695600000000027   F   F   F
  0.5613999999999990  0.4082200000000000  0.0000000000000000   F   F   F
  0.6695936465595178  0.4407610798552710  0.1387100233890101   T   T   T
  0.7836199999999991  0.4748900000000020  0.0695600000000027   F   F   F
  0.7280599999999993  0.4082200000000000  0.0000000000000000   F   F   F
  0.8386911760789634  0.4407025108973044  0.1402663047376957   T   T   T
  0.9502799999999993  0.4748900000000020  0.0695600000000027   F   F   F
  0.8947300000000027  0.4082200000000000  0.0000000000000000   F   F   F
  0.0048730836583397  0.5412447367052113  0.1361136053662916   T   T   T
  0.1169500000000028  0.5748900000000035  0.0695600000000027   F   F   F
  0.0613999999999990  0.5082200000000014  0.0000000000000000   F   F   F
  0.1724535603468437  0.5410720038453352  0.1399359150000583   T   T   T
  0.2836199999999991  0.5748900000000035  0.0695600000000027   F   F   F
  0.2280599999999993  0.5082200000000014  0.0000000000000000   F   F   F
  0.3397450805792852  0.5415184220130280  0.1367239623378562   T   T   T
  0.4502799999999993  0.5748900000000035  0.0695600000000027   F   F   F
  0.3947300000000027  0.5082200000000014  0.0000000000000000   F   F   F
  0.5036976275024241  0.5414519508111992  0.1340896056835486   T   T   T
  0.6169500000000028  0.5748900000000035  0.0695600000000027   F   F   F
  0.5613999999999990  0.5082200000000014  0.0000000000000000   F   F   F
  0.6721660615520835  0.5410385611704180  0.1389131208360161   T   T   T
  0.7836199999999991  0.5748900000000035  0.0695600000000027   F   F   F
  0.7280599999999993  0.5082200000000014  0.0000000000000000   F   F   F
  0.8412460782273432  0.5415976484331103  0.1345480991982188   T   T   T
  0.9502799999999993  0.5748900000000035  0.0695600000000027   F   F   F
  0.8947300000000027  0.5082200000000014  0.0000000000000000   F   F   F
  0.0058870998731410  0.6421401581905964  0.1385844416332300   T   T   T
  0.1169500000000028  0.6748899999999978  0.0695600000000027   F   F   F
  0.0613999999999990  0.6082200000000029  0.0000000000000000   F   F   F
  0.1754601012297633  0.6428618653291802  0.1398226985415750   T   T   T
  0.2836199999999991  0.6748899999999978  0.0695600000000027   F   F   F
  0.2280599999999993  0.6082200000000029  0.0000000000000000   F   F   F
  0.3385488298677430  0.6423471386474811  0.1388255759339475   T   T   T
  0.4502799999999993  0.6748899999999978  0.0695600000000027   F   F   F
  0.3947300000000027  0.6082200000000029  0.0000000000000000   F   F   F
  0.5063663800376099  0.6423560732593837  0.1388658297466539   T   T   T
  0.6169500000000028  0.6748899999999978  0.0695600000000027   F   F   F
  0.5613999999999990  0.6082200000000029  0.0000000000000000   F   F   F
  0.6751545088366349  0.6425750566235656  0.1396003657494971   T   T   T
  0.7836199999999991  0.6748899999999978  0.0695600000000027   F   F   F
  0.7280599999999993  0.6082200000000029  0.0000000000000000   F   F   F
  0.8383104036348116  0.6425020440014998  0.1393062150987076   T   T   T
  0.9502799999999993  0.6748899999999978  0.0695600000000027   F   F   F
  0.8947300000000027  0.6082200000000029  0.0000000000000000   F   F   F
  0.0083017741430083  0.7428344693877580  0.1385695816365056   T   T   T
  0.1169500000000028  0.7748899999999992  0.0695600000000027   F   F   F
  0.0613999999999990  0.7082199999999972  0.0000000000000000   F   F   F
  0.1719223180127859  0.7428603594007300  0.1387284892553590   T   T   T
  0.2836199999999991  0.7748899999999992  0.0695600000000027   F   F   F
  0.2280599999999993  0.7082199999999972  0.0000000000000000   F   F   F
  0.3408333744767475  0.7434179396573719  0.1408675295739313   T   T   T
  0.4502799999999993  0.7748899999999992  0.0695600000000027   F   F   F
  0.3947300000000027  0.7082199999999972  0.0000000000000000   F   F   F
  0.5082127108183764  0.7424989334237524  0.1392680741322058   T   T   T
  0.6169500000000028  0.7748899999999992  0.0695600000000027   F   F   F
  0.5613999999999990  0.7082199999999972  0.0000000000000000   F   F   F
  0.6722234120433960  0.7429245931073251  0.1385141556725533   T   T   T
  0.7836199999999991  0.7748899999999992  0.0695600000000027   F   F   F
  0.7280599999999993  0.7082199999999972  0.0000000000000000   F   F   F
  0.8407713453544181  0.7435260628077224  0.1408275847401486   T   T   T
  0.9502799999999993  0.7748899999999992  0.0695600000000027   F   F   F
  0.8947300000000027  0.7082199999999972  0.0000000000000000   F   F   F
  0.0065342025218186  0.8417894364050659  0.1390719327752765   T   T   T
  0.1169500000000028  0.8748900000000006  0.0695600000000027   F   F   F
  0.0613999999999990  0.8082199999999986  0.0000000000000000   F   F   F
  0.1731260528609266  0.8423109366791779  0.1392169954385166   T   T   T
  0.2836199999999991  0.8748900000000006  0.0695600000000027   F   F   F
  0.2280599999999993  0.8082199999999986  0.0000000000000000   F   F   F
  0.3387655115890945  0.8419049307266810  0.1391167393894726   T   T   T
  0.4502799999999993  0.8748900000000006  0.0695600000000027   F   F   F
  0.3947300000000027  0.8082199999999986  0.0000000000000000   F   F   F
  0.5063444958748273  0.8416837723655866  0.1390619133160778   T   T   T
  0.6169500000000028  0.8748900000000006  0.0695600000000027   F   F   F
  0.5613999999999990  0.8082199999999986  0.0000000000000000   F   F   F
  0.6732396099267991  0.8423433313271871  0.1391834908479024   T   T   T
  0.7836199999999991  0.8748900000000006  0.0695600000000027   F   F   F
  0.7280599999999993  0.8082199999999986  0.0000000000000000   F   F   F
  0.8386502036504726  0.8417833993836009  0.1391337770136526   T   T   T
  0.9502799999999993  0.8748900000000006  0.0695600000000027   F   F   F
  0.8947300000000027  0.8082199999999986  0.0000000000000000   F   F   F
  0.0057218690387543  0.9414137428358010  0.1390390169900114   T   T   T
  0.1169500000000028  0.9748900000000020  0.0695600000000027   F   F   F
  0.0613999999999990  0.9082200000000000  0.0000000000000000   F   F   F
  0.1723174835863793  0.9415007757296401  0.1391598464581877   T   T   T
  0.2836199999999991  0.9748900000000020  0.0695600000000027   F   F   F
  0.2280599999999993  0.9082200000000000  0.0000000000000000   F   F   F
  0.3391837049402586  0.9415027530049127  0.1391327836604340   T   T   T
  0.4502799999999993  0.9748900000000020  0.0695600000000027   F   F   F
  0.3947300000000027  0.9082200000000000  0.0000000000000000   F   F   F
  0.5057675666456896  0.9414246329746013  0.1390512186331665   T   T   T
  0.6169500000000028  0.9748900000000020  0.0695600000000027   F   F   F
  0.5613999999999990  0.9082200000000000  0.0000000000000000   F   F   F
  0.6722608286021068  0.9414772124910145  0.1391692764651630   T   T   T
  0.7836199999999991  0.9748900000000020  0.0695600000000027   F   F   F
  0.7280599999999993  0.9082200000000000  0.0000000000000000   F   F   F
  0.8391987861883666  0.9414940064232088  0.1391217738188849   T   T   T
  0.9502799999999993  0.9748900000000020  0.0695600000000027   F   F   F
  0.8947300000000027  0.9082200000000000  0.0000000000000000   F   F   F
  0.2883506183659933  0.3862838782564587  0.1900047890847071   T   T   T
  0.5481897046828689  0.3936932844738005  0.1917090784824665   T   T   T
  0.7954100727457691  0.3858916018171239  0.1898987777123694   T   T   T
  0.0539783955483476  0.3925418908725252  0.1911407916511063   T   T   T
  0.1248674610583392  0.4901590076851791  0.2998888061272996   T   T   T
  0.2791194220649744  0.5360098723862018  0.1998882964725298   T   T   T
  0.3751563913501312  0.4910988685591002  0.2999395602765597   T   T   T
  0.5462974315336655  0.5354037856409392  0.2049687418073571   T   T   T
  0.6288247293564964  0.4903985617743511  0.2999503318656518   T   T   T
  0.7850248111952872  0.5350723336160431  0.2034398444270795   T   T   T
  0.8812582360730763  0.4901221867907162  0.2991186015473565   T   T   T
  0.0504307019643088  0.5341923505450028  0.1995872264721547   T   T   T
  0.1239547920136908  0.6406788740426622  0.3010652651187321   T   T   T
  0.2845561909325300  0.6878700475319152  0.1937895917888895   T   T   T
  0.2110430695814635  0.5950588168998375  0.4093395464294132   T   T   T
  0.3724004121315447  0.6399485907565543  0.3018517159947733   T   T   T
  0.5431597921942026  0.6935944434752956  0.1939265822510776   T   T   T
  0.4604846220819835  0.5942530746697887  0.4086257429608464   T   T   T
  0.6255070691709042  0.6400490806629928  0.3014654262850292   T   T   T
  0.7918699941648414  0.6872259512358447  0.1934197179869767   T   T   T
  0.7154520815227268  0.5942418766405417  0.4088402571629305   T   T   T
  0.8790565730934095  0.6393335806147994  0.3012416951591518   T   T   T
  0.0498097940105154  0.6927244427610758  0.1929565931059758   T   T   T
  0.9664552678435581  0.5940965175946856  0.4090549415277543   T   T   T
  0.1219865220488985  0.7910293666225438  0.3029836073570716   T   T   T
  0.2078676884910050  0.7441347503237230  0.4092927174259486   T   T   T
  0.3699356363962933  0.7905592051420935  0.3038353848285316   T   T   T
  0.4572905177554101  0.7426642217935325  0.4083990247009489   T   T   T
  0.6237330327944230  0.7903664744005406  0.3034126353477072   T   T   T
  0.7114169459336551  0.7424726508970368  0.4085768196414385   T   T   T
  0.8756417346703714  0.7899124331046243  0.3031611566093086   T   T   T
  0.9633413083296929  0.7420900277448943  0.4085382267774573   T   T   T
  0.2060717411070368  0.8971399648958153  0.4117810209679401   T   T   T
  0.4553776775462784  0.8956584649854753  0.4109968371452045   T   T   T
  0.7095985037970168  0.8957743020623204  0.4111262696731424   T   T   T
  0.9620455571319253  0.8961597901170626  0.4109540023649582   T   T   T
  0.2880920049592793  0.5346560408668803  0.3514694458604836   T   T   T
  0.2058697220225079  0.4336066646052227  0.2448505807985268   T   T   T
  0.5387082913338277  0.5343393714363276  0.3512236800691844   T   T   T
  0.4541079199231915  0.4332882578256751  0.2442808446364275   T   T   T
  0.7919642711781256  0.5341430395722141  0.3510066359229039   T   T   T
  0.7082254312422198  0.4331895977843657  0.2443398624215924   T   T   T
  0.0371762235950915  0.5325631202605325  0.3521577591284780   T   T   T
  0.9555647577181481  0.4317333337991259  0.2440629873000916   T   T   T
  0.1173789779671151  0.6345775430990938  0.4566404622159189   T   T   T
  0.2907182372286221  0.6915724571170843  0.3507395523654585   T   T   T
  0.2097972379090347  0.5911122423585851  0.2436466026557620   T   T   T
  0.3678442194825868  0.6351223866866544  0.4557370410961224   T   T   T
  0.5416594514138831  0.6908443759327718  0.3503996010567116   T   T   T
  0.4561617211619172  0.5878856321301384  0.2419868612359483   T   T   T
  0.6218612548802047  0.6348071811154086  0.4555324654493157   T   T   T
  0.7955017019905519  0.6906831371075484  0.3502278627642040   T   T   T
  0.7107069265580355  0.5889215594080714  0.2436481142432125   T   T   T
  0.8717132680677765  0.6344854017819448  0.4556308331049216   T   T   T
  0.0412975454339382  0.6899234111158781  0.3502920429437257   T   T   T
  0.9580386899681330  0.5863733066369315  0.2417087931857733   T   T   T
  0.1218315881208352  0.7944630916639298  0.4610068038089920   T   T   T
  0.2933212712929930  0.8469404009859944  0.3493061590605358   T   T   T
  0.2137750667764041  0.7484410462171078  0.2435129360037674   T   T   T
  0.3723159687592850  0.7943840303654114  0.4597954457025875   T   T   T
  0.5436744879650860  0.8461402228779298  0.3487237811409002   T   T   T
  0.4604534020074815  0.7465802488941848  0.2434832944710422   T   T   T
  0.6270625847722553  0.7944186351014797  0.4598121052489740   T   T   T
  0.7973312616157502  0.8459174393187484  0.3486779114093668   T   T   T
  0.7153105258002104  0.7465091996881299  0.2436544496888027   T   T   T
  0.8768190584578571  0.7929868646133225  0.4602029641246053   T   T   T
  0.0458103095315132  0.8468146331300425  0.3478163959383573   T   T   T
  0.9632172925030469  0.7460057360889829  0.2433473885796346   T   T   T
  0.1222114170963820  0.9493373080502022  0.4544486766214105   T   T   T
  0.3709317643447054  0.9480100709844071  0.4545125967851369   T   T   T
  0.6254712385698566  0.9481896881040530  0.4544228256411427   T   T   T
  0.8760107478952639  0.9478296130307114  0.4545476394049239   T   T   T
 
  0.00000000E+00  0.00000000E+00  0.00000000E+00
  0.00000000E+00  0.00000000E+00  0.00000000E+00
  0.00000000E+00  0.00000000E+00  0.00000000E+00
  0.00000000E+00  0.00000000E+00  0.00000000E+00
  0.00000000E+00  0.00000000E+00  0.00000000E+00
  0.00000000E+00  0.00000000E+00  0.00000000E+00
  0.00000000E+00  0.00000000E+00  0.00000000E+00
  0.00000000E+00  0.00000000E+00  0.00000000E+00
  0.00000000E+00  0.00000000E+00  0.00000000E+00
  0.00000000E+00  0.00000000E+00  0.00000000E+00
  0.00000000E+00  0.00000000E+00  0.00000000E+00
  0.00000000E+00  0.00000000E+00  0.00000000E+00
  0.00000000E+00  0.00000000E+00  0.00000000E+00
  0.00000000E+00  0.00000000E+00  0.00000000E+00
  0.00000000E+00  0.00000000E+00  0.00000000E+00
  0.00000000E+00  0.00000000E+00  0.00000000E+00
  0.00000000E+00  0.00000000E+00  0.00000000E+00
  0.00000000E+00  0.00000000E+00  0.00000000E+00
  0.00000000E+00  0.00000000E+00  0.00000000E+00
  0.00000000E+00  0.00000000E+00  0.00000000E+00
  0.00000000E+00  0.00000000E+00  0.00000000E+00
  0.00000000E+00  0.00000000E+00  0.00000000E+00
  0.00000000E+00  0.00000000E+00  0.00000000E+00
  0.00000000E+00  0.00000000E+00  0.00000000E+00
  0.00000000E+00  0.00000000E+00  0.00000000E+00
  0.00000000E+00  0.00000000E+00  0.00000000E+00
  0.00000000E+00  0.00000000E+00  0.00000000E+00
  0.00000000E+00  0.00000000E+00  0.00000000E+00
  0.00000000E+00  0.00000000E+00  0.00000000E+00
  0.00000000E+00  0.00000000E+00  0.00000000E+00
  0.00000000E+00  0.00000000E+00  0.00000000E+00
  0.00000000E+00  0.00000000E+00  0.00000000E+00
  0.00000000E+00  0.00000000E+00  0.00000000E+00
  0.00000000E+00  0.00000000E+00  0.00000000E+00
  0.00000000E+00  0.00000000E+00  0.00000000E+00
  0.00000000E+00  0.00000000E+00  0.00000000E+00
  0.00000000E+00  0.00000000E+00  0.00000000E+00
  0.00000000E+00  0.00000000E+00  0.00000000E+00
  0.00000000E+00  0.00000000E+00  0.00000000E+00
  0.00000000E+00  0.00000000E+00  0.00000000E+00
  0.00000000E+00  0.00000000E+00  0.00000000E+00
  0.00000000E+00  0.00000000E+00  0.00000000E+00
  0.00000000E+00  0.00000000E+00  0.00000000E+00
  0.00000000E+00  0.00000000E+00  0.00000000E+00
  0.00000000E+00  0.00000000E+00  0.00000000E+00
  0.00000000E+00  0.00000000E+00  0.00000000E+00
  0.00000000E+00  0.00000000E+00  0.00000000E+00
  0.00000000E+00  0.00000000E+00  0.00000000E+00
  0.00000000E+00  0.00000000E+00  0.00000000E+00
  0.00000000E+00  0.00000000E+00  0.00000000E+00
  0.00000000E+00  0.00000000E+00  0.00000000E+00
  0.00000000E+00  0.00000000E+00  0.00000000E+00
  0.00000000E+00  0.00000000E+00  0.00000000E+00
  0.00000000E+00  0.00000000E+00  0.00000000E+00
  0.00000000E+00  0.00000000E+00  0.00000000E+00
  0.00000000E+00  0.00000000E+00  0.00000000E+00
  0.00000000E+00  0.00000000E+00  0.00000000E+00
  0.00000000E+00  0.00000000E+00  0.00000000E+00
  0.00000000E+00  0.00000000E+00  0.00000000E+00
  0.00000000E+00  0.00000000E+00  0.00000000E+00
  0.00000000E+00  0.00000000E+00  0.00000000E+00
  0.00000000E+00  0.00000000E+00  0.00000000E+00
  0.00000000E+00  0.00000000E+00  0.00000000E+00
  0.00000000E+00  0.00000000E+00  0.00000000E+00
  0.00000000E+00  0.00000000E+00  0.00000000E+00
  0.00000000E+00  0.00000000E+00  0.00000000E+00
  0.00000000E+00  0.00000000E+00  0.00000000E+00
  0.00000000E+00  0.00000000E+00  0.00000000E+00
  0.00000000E+00  0.00000000E+00  0.00000000E+00
  0.00000000E+00  0.00000000E+00  0.00000000E+00
  0.00000000E+00  0.00000000E+00  0.00000000E+00
  0.00000000E+00  0.00000000E+00  0.00000000E+00
  0.00000000E+00  0.00000000E+00  0.00000000E+00
  0.00000000E+00  0.00000000E+00  0.00000000E+00
  0.00000000E+00  0.00000000E+00  0.00000000E+00
  0.00000000E+00  0.00000000E+00  0.00000000E+00
  0.00000000E+00  0.00000000E+00  0.00000000E+00
  0.00000000E+00  0.00000000E+00  0.00000000E+00
  0.00000000E+00  0.00000000E+00  0.00000000E+00
  0.00000000E+00  0.00000000E+00  0.00000000E+00
  0.00000000E+00  0.00000000E+00  0.00000000E+00
  0.00000000E+00  0.00000000E+00  0.00000000E+00
  0.00000000E+00  0.00000000E+00  0.00000000E+00
  0.00000000E+00  0.00000000E+00  0.00000000E+00
  0.00000000E+00  0.00000000E+00  0.00000000E+00
  0.00000000E+00  0.00000000E+00  0.00000000E+00
  0.00000000E+00  0.00000000E+00  0.00000000E+00
  0.00000000E+00  0.00000000E+00  0.00000000E+00
  0.00000000E+00  0.00000000E+00  0.00000000E+00
  0.00000000E+00  0.00000000E+00  0.00000000E+00
  0.00000000E+00  0.00000000E+00  0.00000000E+00
  0.00000000E+00  0.00000000E+00  0.00000000E+00
  0.00000000E+00  0.00000000E+00  0.00000000E+00
  0.00000000E+00  0.00000000E+00  0.00000000E+00
  0.00000000E+00  0.00000000E+00  0.00000000E+00
  0.00000000E+00  0.00000000E+00  0.00000000E+00
  0.00000000E+00  0.00000000E+00  0.00000000E+00
  0.00000000E+00  0.00000000E+00  0.00000000E+00
  0.00000000E+00  0.00000000E+00  0.00000000E+00
  0.00000000E+00  0.00000000E+00  0.00000000E+00
  0.00000000E+00  0.00000000E+00  0.00000000E+00
  0.00000000E+00  0.00000000E+00  0.00000000E+00
  0.00000000E+00  0.00000000E+00  0.00000000E+00
  0.00000000E+00  0.00000000E+00  0.00000000E+00
  0.00000000E+00  0.00000000E+00  0.00000000E+00
  0.00000000E+00  0.00000000E+00  0.00000000E+00
  0.00000000E+00  0.00000000E+00  0.00000000E+00
  0.00000000E+00  0.00000000E+00  0.00000000E+00
  0.00000000E+00  0.00000000E+00  0.00000000E+00
  0.00000000E+00  0.00000000E+00  0.00000000E+00
  0.00000000E+00  0.00000000E+00  0.00000000E+00
  0.00000000E+00  0.00000000E+00  0.00000000E+00
  0.00000000E+00  0.00000000E+00  0.00000000E+00
  0.00000000E+00  0.00000000E+00  0.00000000E+00
  0.00000000E+00  0.00000000E+00  0.00000000E+00
  0.00000000E+00  0.00000000E+00  0.00000000E+00
  0.00000000E+00  0.00000000E+00  0.00000000E+00
  0.00000000E+00  0.00000000E+00  0.00000000E+00
  0.00000000E+00  0.00000000E+00  0.00000000E+00
  0.00000000E+00  0.00000000E+00  0.00000000E+00
  0.00000000E+00  0.00000000E+00  0.00000000E+00
  0.00000000E+00  0.00000000E+00  0.00000000E+00
  0.00000000E+00  0.00000000E+00  0.00000000E+00
  0.00000000E+00  0.00000000E+00  0.00000000E+00
  0.00000000E+00  0.00000000E+00  0.00000000E+00
  0.00000000E+00  0.00000000E+00  0.00000000E+00
  0.00000000E+00  0.00000000E+00  0.00000000E+00
  0.00000000E+00  0.00000000E+00  0.00000000E+00
  0.00000000E+00  0.00000000E+00  0.00000000E+00
  0.00000000E+00  0.00000000E+00  0.00000000E+00
  0.00000000E+00  0.00000000E+00  0.00000000E+00
  0.00000000E+00  0.00000000E+00  0.00000000E+00
  0.00000000E+00  0.00000000E+00  0.00000000E+00
  0.00000000E+00  0.00000000E+00  0.00000000E+00
  0.00000000E+00  0.00000000E+00  0.00000000E+00
  0.00000000E+00  0.00000000E+00  0.00000000E+00
  0.00000000E+00  0.00000000E+00  0.00000000E+00
  0.00000000E+00  0.00000000E+00  0.00000000E+00
  0.00000000E+00  0.00000000E+00  0.00000000E+00
  0.00000000E+00  0.00000000E+00  0.00000000E+00
  0.00000000E+00  0.00000000E+00  0.00000000E+00
  0.00000000E+00  0.00000000E+00  0.00000000E+00
  0.00000000E+00  0.00000000E+00  0.00000000E+00
  0.00000000E+00  0.00000000E+00  0.00000000E+00
  0.00000000E+00  0.00000000E+00  0.00000000E+00
  0.00000000E+00  0.00000000E+00  0.00000000E+00
  0.00000000E+00  0.00000000E+00  0.00000000E+00
  0.00000000E+00  0.00000000E+00  0.00000000E+00
  0.00000000E+00  0.00000000E+00  0.00000000E+00
  0.00000000E+00  0.00000000E+00  0.00000000E+00
  0.00000000E+00  0.00000000E+00  0.00000000E+00
  0.00000000E+00  0.00000000E+00  0.00000000E+00
  0.00000000E+00  0.00000000E+00  0.00000000E+00
  0.00000000E+00  0.00000000E+00  0.00000000E+00
  0.00000000E+00  0.00000000E+00  0.00000000E+00
  0.00000000E+00  0.00000000E+00  0.00000000E+00
  0.00000000E+00  0.00000000E+00  0.00000000E+00
  0.00000000E+00  0.00000000E+00  0.00000000E+00
  0.00000000E+00  0.00000000E+00  0.00000000E+00
  0.00000000E+00  0.00000000E+00  0.00000000E+00
  0.00000000E+00  0.00000000E+00  0.00000000E+00
  0.00000000E+00  0.00000000E+00  0.00000000E+00
  0.00000000E+00  0.00000000E+00  0.00000000E+00
  0.00000000E+00  0.00000000E+00  0.00000000E+00
  0.00000000E+00  0.00000000E+00  0.00000000E+00
  0.00000000E+00  0.00000000E+00  0.00000000E+00
  0.00000000E+00  0.00000000E+00  0.00000000E+00
  0.00000000E+00  0.00000000E+00  0.00000000E+00
  0.00000000E+00  0.00000000E+00  0.00000000E+00
  0.00000000E+00  0.00000000E+00  0.00000000E+00
  0.00000000E+00  0.00000000E+00  0.00000000E+00
  0.00000000E+00  0.00000000E+00  0.00000000E+00
  0.00000000E+00  0.00000000E+00  0.00000000E+00
  0.00000000E+00  0.00000000E+00  0.00000000E+00
  0.00000000E+00  0.00000000E+00  0.00000000E+00
  0.00000000E+00  0.00000000E+00  0.00000000E+00
  0.00000000E+00  0.00000000E+00  0.00000000E+00
  0.00000000E+00  0.00000000E+00  0.00000000E+00
  0.00000000E+00  0.00000000E+00  0.00000000E+00
  0.00000000E+00  0.00000000E+00  0.00000000E+00
  0.00000000E+00  0.00000000E+00  0.00000000E+00
  0.00000000E+00  0.00000000E+00  0.00000000E+00
  0.00000000E+00  0.00000000E+00  0.00000000E+00
  0.00000000E+00  0.00000000E+00  0.00000000E+00
  0.00000000E+00  0.00000000E+00  0.00000000E+00
  0.00000000E+00  0.00000000E+00  0.00000000E+00
  0.00000000E+00  0.00000000E+00  0.00000000E+00
  0.00000000E+00  0.00000000E+00  0.00000000E+00
  0.00000000E+00  0.00000000E+00  0.00000000E+00
  0.00000000E+00  0.00000000E+00  0.00000000E+00
  0.00000000E+00  0.00000000E+00  0.00000000E+00
  0.00000000E+00  0.00000000E+00  0.00000000E+00
  0.00000000E+00  0.00000000E+00  0.00000000E+00
  0.00000000E+00  0.00000000E+00  0.00000000E+00
  0.00000000E+00  0.00000000E+00  0.00000000E+00
  0.00000000E+00  0.00000000E+00  0.00000000E+00
  0.00000000E+00  0.00000000E+00  0.00000000E+00
  0.00000000E+00  0.00000000E+00  0.00000000E+00
  0.00000000E+00  0.00000000E+00  0.00000000E+00
  0.00000000E+00  0.00000000E+00  0.00000000E+00
  0.00000000E+00  0.00000000E+00  0.00000000E+00
  0.00000000E+00  0.00000000E+00  0.00000000E+00
  0.00000000E+00  0.00000000E+00  0.00000000E+00
  0.00000000E+00  0.00000000E+00  0.00000000E+00
  0.00000000E+00  0.00000000E+00  0.00000000E+00
  0.00000000E+00  0.00000000E+00  0.00000000E+00
  0.00000000E+00  0.00000000E+00  0.00000000E+00
  0.00000000E+00  0.00000000E+00  0.00000000E+00
  0.00000000E+00  0.00000000E+00  0.00000000E+00
  0.00000000E+00  0.00000000E+00  0.00000000E+00
  0.00000000E+00  0.00000000E+00  0.00000000E+00
  0.00000000E+00  0.00000000E+00  0.00000000E+00
  0.00000000E+00  0.00000000E+00  0.00000000E+00
  0.00000000E+00  0.00000000E+00  0.00000000E+00
  0.00000000E+00  0.00000000E+00  0.00000000E+00
  0.00000000E+00  0.00000000E+00  0.00000000E+00
  0.00000000E+00  0.00000000E+00  0.00000000E+00
  0.00000000E+00  0.00000000E+00  0.00000000E+00
  0.00000000E+00  0.00000000E+00  0.00000000E+00
  0.00000000E+00  0.00000000E+00  0.00000000E+00
  0.00000000E+00  0.00000000E+00  0.00000000E+00
  0.00000000E+00  0.00000000E+00  0.00000000E+00
  0.00000000E+00  0.00000000E+00  0.00000000E+00
  0.00000000E+00  0.00000000E+00  0.00000000E+00
  0.00000000E+00  0.00000000E+00  0.00000000E+00
  0.00000000E+00  0.00000000E+00  0.00000000E+00
  0.00000000E+00  0.00000000E+00  0.00000000E+00
  0.00000000E+00  0.00000000E+00  0.00000000E+00
  0.00000000E+00  0.00000000E+00  0.00000000E+00
  0.00000000E+00  0.00000000E+00  0.00000000E+00