model1_2                                
   1.00000000000000     
    15.3360004424999996    0.0000000000000000    0.0000000000000000
   -12.7799997330000004   22.1356088582000012    0.0000000000000000
     0.0000000000000000    0.0000000000000000   30.0000000000000000
   Cu   O    Ba   C    H 
   180    37    36     2     2
Selective dynamics
Direct
  0.0046361272469682  0.0403192462021806  0.1392130188812430   T   T   T
  0.1169499979978781  0.0748900030001138  0.0695599989999991   F   F   F
  0.0614000000017896  0.0082199999993477  0.0000000000000000   F   F   F
  0.1712358275074806  0.0393483844664715  0.1393002973318715   T   T   T
  0.2836200000028697  0.0748900030001138  0.0695599989999991   F   F   F
  0.2280600070018508  0.0082199999993477  0.0000000000000000   F   F   F
  0.3386992189365046  0.0391477096026591  0.1393285003364113   T   T   T
  0.4502800110000607  0.0748900030001138  0.0695599989999991   F   F   F
  0.3947300019971891  0.0082199999993477  0.0000000000000000   F   F   F
  0.5060987304248030  0.0405698101145902  0.1391208204293193   T   T   T
  0.6169499750029672  0.0748900030001138  0.0695599989999991   F   F   F
  0.5613999960013984  0.0082199999993477  0.0000000000000000   F   F   F
  0.6727282709961173  0.0410934053394385  0.1392027910534708   T   T   T
  0.7836199999996083  0.0748900030001138  0.0695599989999991   F   F   F
  0.7280600069985894  0.0082199999993477  0.0000000000000000   F   F   F
  0.8392923135465864  0.0412057618925346  0.1389947200197170   T   T   T
  0.9502800110033220  0.0748900030001138  0.0695599989999991   F   F   F
  0.8947299719991477  0.0082199999993477  0.0000000000000000   F   F   F
  0.0053706948333101  0.1402392221247197  0.1385051190958535   T   T   T
  0.1169499979989439  0.1748899969998305  0.0695599989999991   F   F   F
  0.0613999999979882  0.1082200040010477  0.0000000000000000   F   F   F
  0.1687981814717361  0.1365018159777449  0.1382755633508310   T   T   T
  0.2836199999974127  0.1748899969998305  0.0695599989999991   F   F   F
  0.2280600069980494  0.1082200040010477  0.0000000000000000   F   F   F
  0.3382063050798010  0.1358427735260861  0.1384293310487195   T   T   T
  0.4502800110011265  0.1748899969998305  0.0695599989999991   F   F   F
  0.3947300019999105  0.1082200040010477  0.0000000000000000   F   F   F
  0.5047556110841782  0.1384974908015337  0.1392790412706049   T   T   T
  0.6169499749975103  0.1748899969998305  0.0695599989999991   F   F   F
  0.5613999960041198  0.1082200040010477  0.0000000000000000   F   F   F
  0.6720750612147057  0.1395318508110606  0.1391603985524839   T   T   T
  0.7836200000006741  0.1748899969998305  0.0695599989999991   F   F   F
  0.7280600070013108  0.1082200040010477  0.0000000000000000   F   F   F
  0.8387456879733151  0.1400542233335642  0.1387952958547984   T   T   T
  0.9502800109978651  0.1748899969998305  0.0695599989999991   F   F   F
  0.8947299720018691  0.1082200040010477  0.0000000000000000   F   F   F
  0.0055109890123219  0.2389468894736453  0.1380318641188438   T   T   T
  0.1169499979987236  0.2748900059980031  0.0695599989999991   F   F   F
  0.0614000000011075  0.2082200049985374  0.0000000000000000   F   F   F
  0.1741835810125778  0.2383023423439568  0.1410233900371765   T   T   T
  0.2836199999971925  0.2748900059980031  0.0695599989999991   F   F   F
  0.2280600070011687  0.2082200049985374  0.0000000000000000   F   F   F
  0.3354738475982515  0.2312331947310184  0.1384896390821524   T   T   T
  0.4502800110009062  0.2748900059980031  0.0695599989999991   F   F   F
  0.3947300019965141  0.2082200049985374  0.0000000000000000   F   F   F
  0.5057865061692723  0.2369901932396488  0.1380188551182400   T   T   T
  0.6169499749972900  0.2748900059980031  0.0695599989999991   F   F   F
  0.5613999960007163  0.2082200049985374  0.0000000000000000   F   F   F
  0.6694215399088250  0.2368723792915688  0.1386959662178242   T   T   T
  0.7836200000004538  0.2748900059980031  0.0695599989999991   F   F   F
  0.7280600069979144  0.2082200049985374  0.0000000000000000   F   F   F
  0.8368692099752835  0.2385017404383518  0.1382977431705825   T   T   T
  0.9502800109976448  0.2748900059980031  0.0695599989999991   F   F   F
  0.8947299719984656  0.2082200049985374  0.0000000000000000   F   F   F
  0.9994293330169270  0.3356301743302339  0.1403496598537401   T   T   T
  0.1169499980035553  0.3748900000022317  0.0695599989999991   F   F   F
  0.0613999999956576  0.3082199989982470  0.0000000000000000   F   F   F
  0.1672130959841169  0.3389836297363971  0.1396905934276802   T   T   T
  0.2836200000020241  0.3748900000022317  0.0695599989999991   F   F   F
  0.2280600069957188  0.3082199989982470  0.0000000000000000   F   F   F
  0.3316706957449043  0.3397515530332882  0.1406976518879475   T   T   T
  0.4502800109992151  0.3748900000022317  0.0695599989999991   F   F   F
  0.3947300019975799  0.3082199989982470  0.0000000000000000   F   F   F
  0.4956128688903334  0.3317910125995027  0.1458700607789609   T   T   T
  0.6169499750021217  0.3748900000022317  0.0695599989999991   F   F   F
  0.5613999960017821  0.3082199989982470  0.0000000000000000   F   F   F
  0.6679306506845393  0.3365632752981398  0.1402130477798522   T   T   T
  0.7836199999987628  0.3748900000022317  0.0695599989999991   F   F   F
  0.7280600069989802  0.3082199989982470  0.0000000000000000   F   F   F
  0.8340832613620890  0.3371259134671334  0.1397931865218283   T   T   T
  0.9502800110024765  0.3748900000022317  0.0695599989999991   F   F   F
  0.8947299719995314  0.3082199989982470  0.0000000000000000   F   F   F
  0.0062659134001777  0.4431083998995646  0.1394653256493754   T   T   T
  0.1169499980046211  0.4748899940019484  0.0695599989999991   F   F   F
  0.0613999999967234  0.4082199929979637  0.0000000000000000   F   F   F
  0.1732072783767578  0.4440385953181405  0.1402702994421290   T   T   T
  0.2836200000030900  0.4748899940019484  0.0695599989999991   F   F   F
  0.2280600069967846  0.4082199929979637  0.0000000000000000   F   F   F
  0.3398115075776289  0.4430908798875990  0.1380655686774119   T   T   T
  0.4502800110002809  0.4748899940019484  0.0695599989999991   F   F   F
  0.3947300019986386  0.4082199929979637  0.0000000000000000   F   F   F
  0.5059540870261046  0.4430964722191391  0.1383725272326757   T   T   T
  0.6169499750031875  0.4748899940019484  0.0695599989999991   F   F   F
  0.5613999959963323  0.4082199929979637  0.0000000000000000   F   F   F
  0.6722592494530204  0.4422681015131928  0.1375133382579108   T   T   T
  0.7836199999998286  0.4748899940019484  0.0695599989999991   F   F   F
  0.7280600070000389  0.4082199929979637  0.0000000000000000   F   F   F
  0.8375056782351891  0.4407184847409553  0.1385702596974099   T   T   T
  0.9502800110035423  0.4748899940019484  0.0695599989999991   F   F   F
  0.8947299720005972  0.4082199929979637  0.0000000000000000   F   F   F
  0.0081975561071204  0.5428677126279666  0.1398586079138724   T   T   T
  0.1169499979965920  0.5748900179985768  0.0695599989999991   F   F   F
  0.0613999999989829  0.5082200169991040  0.0000000000000000   F   F   F
  0.1743815508546689  0.5439563671839096  0.1349042511436451   T   T   T
  0.2836200000015836  0.5748900179985768  0.0695599989999991   F   F   F
  0.2280600069990442  0.5082200169991040  0.0000000000000000   F   F   F
  0.3390311861807760  0.5440176925090228  0.1393134153661535   T   T   T
  0.4502800109987746  0.5748900179985768  0.0695599989999991   F   F   F
  0.3947300020008981  0.5082200169991040  0.0000000000000000   F   F   F
  0.5094187458588664  0.5435937954274408  0.1400862854389615   T   T   T
  0.6169499750016811  0.5748900179985768  0.0695599989999991   F   F   F
  0.5613999959985918  0.5082200169991040  0.0000000000000000   F   F   F
  0.6739638823390663  0.5434674399216348  0.1341153087508573   T   T   T
  0.7836199999983222  0.5748900179985768  0.0695599989999991   F   F   F
  0.7280600070022984  0.5082200169991040  0.0000000000000000   F   F   F
  0.8369529475434092  0.5423643021315527  0.1404244299227813   T   T   T
  0.9502800110020360  0.5748900179985768  0.0695599989999991   F   F   F
  0.8947299719963411  0.5082200169991040  0.0000000000000000   F   F   F
  0.0107030187227508  0.6476543179987218  0.1442981661373253   T   T   T
  0.1169499980002300  0.6748899820013747  0.0695599989999991   F   F   F
  0.0614000000026138  0.6082199810019020  0.0000000000000000   F   F   F
  0.1753563613759752  0.6447224187780378  0.1397532951729588   T   T   T
  0.2836199999986988  0.6748899820013747  0.0695599989999991   F   F   F
  0.2280600070026750  0.6082199810019020  0.0000000000000000   F   F   F
  0.3411965164590711  0.6449988419372801  0.1390905214299067   T   T   T
  0.4502800110024126  0.6748899820013747  0.0695599989999991   F   F   F
  0.3947300020045361  0.6082199810019020  0.0000000000000000   F   F   F
  0.5106459278995388  0.6479564697761759  0.1445491997024959   T   T   T
  0.6169499749987963  0.6748899820013747  0.0695599989999991   F   F   F
  0.5613999960022227  0.6082199810019020  0.0000000000000000   F   F   F
  0.6753295087974251  0.6446675294222501  0.1395497063021480   T   T   T
  0.7836200000019602  0.6748899820013747  0.0695599989999991   F   F   F
  0.7280600069994136  0.6082199810019020  0.0000000000000000   F   F   F
  0.8408584174290681  0.6444562466714245  0.1391333912059736   T   T   T
  0.9502800109991512  0.6748899820013747  0.0695599989999991   F   F   F
  0.8947299719999720  0.6082199810019020  0.0000000000000000   F   F   F
  0.0100736474174781  0.7460831156150931  0.1348238022633907   T   T   T
  0.1169499979987236  0.7748900059980031  0.0695599989999991   F   F   F
  0.0614000000011075  0.7082200049985374  0.0000000000000000   F   F   F
  0.1752652421523848  0.7460659727980712  0.1344080328196355   T   T   T
  0.2836199999971925  0.7748900059980031  0.0695599989999991   F   F   F
  0.2280600070011687  0.7082200049985374  0.0000000000000000   F   F   F
  0.3415912497271734  0.7446975210268505  0.1398681338167833   T   T   T
  0.4502800110009062  0.7748900059980031  0.0695599989999991   F   F   F
  0.3947300019965141  0.7082200049985374  0.0000000000000000   F   F   F
  0.5105625756532817  0.7464136364244141  0.1347824413359646   T   T   T
  0.6169499749972900  0.7748900059980031  0.0695599989999991   F   F   F
  0.5613999960007163  0.7082200049985374  0.0000000000000000   F   F   F
  0.6754375106167672  0.7463155188092045  0.1343473356751090   T   T   T
  0.7836200000004538  0.7748900059980031  0.0695599989999991   F   F   F
  0.7280600069979144  0.7082200049985374  0.0000000000000000   F   F   F
  0.8415498438064972  0.7446439683022916  0.1397249566794656   T   T   T
  0.9502800109976448  0.7748900059980031  0.0695599989999991   F   F   F
  0.8947299719984656  0.7082200049985374  0.0000000000000000   F   F   F
  0.0067816513275361  0.8429040097944807  0.1401100687658925   T   T   T
  0.1169499980036264  0.8748900290007597  0.0695599989999991   F   F   F
  0.0613999999968513  0.8082200289996777  0.0000000000000000   F   F   F
  0.1741568348216020  0.8435052900864619  0.1402778194138392   T   T   T
  0.2836200000020952  0.8748900290007597  0.0695599989999991   F   F   F
  0.2280600069969125  0.8082200289996777  0.0000000000000000   F   F   F
  0.3406759437575317  0.8431735001463352  0.1399106703508863   T   T   T
  0.4502800109992933  0.8748900290007597  0.0695599989999991   F   F   F
  0.3947300019987736  0.8082200289996777  0.0000000000000000   F   F   F
  0.5070161481399609  0.8431944684873898  0.1402049353609272   T   T   T
  0.6169499750021927  0.8748900290007597  0.0695599989999991   F   F   F
  0.5613999960029759  0.8082200289996777  0.0000000000000000   F   F   F
  0.6742420576025410  0.8439294217431694  0.1405352260704475   T   T   T
  0.7836199999988409  0.8748900290007597  0.0695599989999991   F   F   F
  0.7280600070001739  0.8082200289996777  0.0000000000000000   F   F   F
  0.8403341407946812  0.8431438702084293  0.1401895798082506   T   T   T
  0.9502800110025476  0.8748900290007597  0.0695599989999991   F   F   F
  0.8947299720007251  0.8082200289996777  0.0000000000000000   F   F   F
  0.0055854774132271  0.9413967968921639  0.1395489284844800   T   T   T
  0.1169499980046211  0.9748899940019484  0.0695599989999991   F   F   F
  0.0613999999967234  0.9082199929979637  0.0000000000000000   F   F   F
  0.1722387383241895  0.9412075427190274  0.1396361994256452   T   T   T
  0.2836200000030900  0.9748899940019484  0.0695599989999991   F   F   F
  0.2280600069967846  0.9082199929979637  0.0000000000000000   F   F   F
  0.3397646214023453  0.9413230127844869  0.1395332749031866   T   T   T
  0.4502800110002809  0.9748899940019484  0.0695599989999991   F   F   F
  0.3947300019986386  0.9082199929979637  0.0000000000000000   F   F   F
  0.5064170576549927  0.9417815772851910  0.1392755124387506   T   T   T
  0.6169499750031875  0.9748899940019484  0.0695599989999991   F   F   F
  0.5613999959963252  0.9082199929979637  0.0000000000000000   F   F   F
  0.6728797139864540  0.9420845368332778  0.1394745531206638   T   T   T
  0.7836199999998286  0.9748899940019484  0.0695599989999991   F   F   F
  0.7280600070000389  0.9082199929979637  0.0000000000000000   F   F   F
  0.8394231734348949  0.9418423981558064  0.1395657948548887   T   T   T
  0.9502800110035423  0.9748899940019484  0.0695599989999991   F   F   F
  0.8947299720005972  0.9082199929979637  0.0000000000000000   F   F   F
  0.2769047489599146  0.3826064962155939  0.1860103665767809   T   T   T
  0.5607075487184332  0.4076882432103162  0.1821256021730022   T   T   T
  0.7819744325444091  0.3750765763898869  0.1855688166306209   T   T   T
  0.0517161164196409  0.4007485023911741  0.1837724093547877   T   T   T
  0.1082295205131771  0.4705201973224433  0.2966620144531618   T   T   T
  0.2627970409616296  0.5113325237283419  0.1959074379438164   T   T   T
  0.3549283845821805  0.4673520708613736  0.2975822537019255   T   T   T
  0.5122179393664155  0.5091294644172280  0.1981628859858233   T   T   T
  0.6089173605499383  0.4700881981269447  0.2956541544821931   T   T   T
  0.7752219137322740  0.5139450709903741  0.1996032882019705   T   T   T
  0.8580445920050366  0.4684170789071018  0.2977018289123379   T   T   T
  0.0143574575898597  0.5084568975556678  0.1978447206189102   T   T   T
  0.1060793659581662  0.6131358955334676  0.3081391929279249   T   T   T
  0.2819368928598394  0.6781674654920380  0.1944021566771426   T   T   T
  0.1960726346081429  0.5758124966320253  0.4090357361692583   T   T   T
  0.3520007802927907  0.6124417211952036  0.3048730894677902   T   T   T
  0.5309545743240136  0.6743759748762628  0.2099255315507946   T   T   T
  0.4456231161649598  0.5760892874485393  0.4063792179106116   T   T   T
  0.6056112852846383  0.6137461084019975  0.3057149772603438   T   T   T
  0.7818203030302726  0.6765347729826843  0.1941239429393775   T   T   T
  0.6962667779904876  0.5749876140898351  0.4071078446900600   T   T   T
  0.8521313266556092  0.6144812229048782  0.3042206079817547   T   T   T
  0.0373945608550770  0.6769407600933803  0.2089734082950159   T   T   T
  0.9485262694409684  0.5779257097375279  0.4072475358647054   T   T   T
  0.1200244069379508  0.7797250744664623  0.3034125849578615   T   T   T
  0.2013304992449605  0.7318129565465625  0.4107890479659346   T   T   T
  0.3765930059835441  0.7782500104247276  0.3049122249059337   T   T   T
  0.4334235056773181  0.7155597046310049  0.4221295760729689   T   T   T
  0.6247872280059710  0.7821927678889935  0.3040351562332830   T   T   T
  0.6891453639316936  0.7177466859759960  0.4161768675913535   T   T   T
  0.8755424009627220  0.7807416322734966  0.3043998815180942   T   T   T
  0.9367515255325358  0.7161798671810615  0.4208712028330623   T   T   T
  0.1892488718480223  0.8799346564689969  0.4060006470704636   T   T   T
  0.4375541873727897  0.8791024454224257  0.4126879751661434   T   T   T
  0.6903181205043722  0.8804003435852792  0.4039960363199739   T   T   T
  0.9372119717761436  0.8799059657994022  0.4061819052162292   T   T   T
  0.4284339004337383  0.2834568263320847  0.2355401315118755   T   T   T
  0.2671267009923639  0.5102666875278317  0.3471175302051179   T   T   T
  0.1831637812717091  0.4111322190373699  0.2432647409119326   T   T   T
  0.5173252252532450  0.5096713725303204  0.3456310377850755   T   T   T
  0.4319531085386998  0.4079922789258106  0.2410242050969771   T   T   T
  0.7665184839794748  0.5110584333747852  0.3457743586142925   T   T   T
  0.6875391434808833  0.4129043591256618  0.2413987782148865   T   T   T
  0.0174243097208446  0.5098306798366252  0.3478201151045255   T   T   T
  0.9328994714793808  0.4103515258512900  0.2423356811633681   T   T   T
  0.1027478175786385  0.6141918116752692  0.4511095110759484   T   T   T
  0.2803911867654634  0.6700552004586342  0.3468308485695957   T   T   T
  0.1895632287125437  0.5702521902171256  0.2388208663530094   T   T   T
  0.3480362442776368  0.6069552816288564  0.4548886970351234   T   T   T
  0.5273566590815193  0.6702389878748534  0.3436280251448380   T   T   T
  0.4362917026773090  0.5661763605723849  0.2400459953390595   T   T   T
  0.5983801174181096  0.6087819375054409  0.4518433417305445   T   T   T
  0.7775719299994108  0.6711921849500584  0.3462857086496456   T   T   T
  0.6887927834733318  0.5683981509145255  0.2375480966133594   T   T   T
  0.8474182187222326  0.6075192038535064  0.4541166032451116   T   T   T
  0.0250006228879300  0.6702171446290919  0.3439054548821048   T   T   T
  0.9441097042552329  0.5693315920150042  0.2411082209505651   T   T   T
  0.1103776069453986  0.7782378480056451  0.4528715624888022   T   T   T
  0.2892241294012123  0.8259401851846278  0.3457465350938520   T   T   T
  0.2143833074676067  0.7449118094390812  0.2332500261622101   T   T   T
  0.3630968845690390  0.7767960168156236  0.4573702745749060   T   T   T
  0.5573023885859953  0.8469576807772157  0.3289153628241053   T   T   T
  0.4559652212482277  0.7367604527010698  0.2337741148860175   T   T   T
  0.6116695710331896  0.7767670302015190  0.4489353184726568   T   T   T
  0.8048415029681024  0.8432132658681653  0.3329194079135434   T   T   T
  0.7083269585944834  0.7382264100656073  0.2331856411293529   T   T   T
  0.8609206434268231  0.7769135246825840  0.4514164203844544   T   T   T
  0.0585655914188692  0.8466260246474704  0.3284772002016680   T   T   T
  0.9550778914581457  0.7351410081426124  0.2340201363643217   T   T   T
  0.1153342806224202  0.9428322381376759  0.4325880731270360   T   T   T
  0.3665974348670815  0.9448267657826293  0.4347617702953102   T   T   T
  0.6160733030598706  0.9417659976497106  0.4355203388701483   T   T   T
  0.8649276004647106  0.9425624513951760  0.4348162054231040   T   T   T
  0.2898541933650804  0.2719488373477503  0.1896145663202873   T   T   T
  0.3863172607034215  0.2823730305800964  0.1931543390255470   T   T   T
  0.2417871355107550  0.2616121571340742  0.2195818126271192   T   T   T
  0.4805241164357597  0.2728959471427430  0.2293298059275415   T   T   T
 
  0.00000000E+00  0.00000000E+00  0.00000000E+00
  0.00000000E+00  0.00000000E+00  0.00000000E+00
  0.00000000E+00  0.00000000E+00  0.00000000E+00
  0.00000000E+00  0.00000000E+00  0.00000000E+00
  0.00000000E+00  0.00000000E+00  0.00000000E+00
  0.00000000E+00  0.00000000E+00  0.00000000E+00
  0.00000000E+00  0.00000000E+00  0.00000000E+00
  0.00000000E+00  0.00000000E+00  0.00000000E+00
  0.00000000E+00  0.00000000E+00  0.00000000E+00
  0.00000000E+00  0.00000000E+00  0.00000000E+00
  0.00000000E+00  0.00000000E+00  0.00000000E+00
  0.00000000E+00  0.00000000E+00  0.00000000E+00
  0.00000000E+00  0.00000000E+00  0.00000000E+00
  0.00000000E+00  0.00000000E+00  0.00000000E+00
  0.00000000E+00  0.00000000E+00  0.00000000E+00
  0.00000000E+00  0.00000000E+00  0.00000000E+00
  0.00000000E+00  0.00000000E+00  0.00000000E+00
  0.00000000E+00  0.00000000E+00  0.00000000E+00
  0.00000000E+00  0.00000000E+00  0.00000000E+00
  0.00000000E+00  0.00000000E+00  0.00000000E+00
  0.00000000E+00  0.00000000E+00  0.00000000E+00
  0.00000000E+00  0.00000000E+00  0.00000000E+00
  0.00000000E+00  0.00000000E+00  0.00000000E+00
  0.00000000E+00  0.00000000E+00  0.00000000E+00
  0.00000000E+00  0.00000000E+00  0.00000000E+00
  0.00000000E+00  0.00000000E+00  0.00000000E+00
  0.00000000E+00  0.00000000E+00  0.00000000E+00
  0.00000000E+00  0.00000000E+00  0.00000000E+00
  0.00000000E+00  0.00000000E+00  0.00000000E+00
  0.00000000E+00  0.00000000E+00  0.00000000E+00
  0.00000000E+00  0.00000000E+00  0.00000000E+00
  0.00000000E+00  0.00000000E+00  0.00000000E+00
  0.00000000E+00  0.00000000E+00  0.00000000E+00
  0.00000000E+00  0.00000000E+00  0.00000000E+00
  0.00000000E+00  0.00000000E+00  0.00000000E+00
  0.00000000E+00  0.00000000E+00  0.00000000E+00
  0.00000000E+00  0.00000000E+00  0.00000000E+00
  0.00000000E+00  0.00000000E+00  0.00000000E+00
  0.00000000E+00  0.00000000E+00  0.00000000E+00
  0.00000000E+00  0.00000000E+00  0.00000000E+00
  0.00000000E+00  0.00000000E+00  0.00000000E+00
  0.00000000E+00  0.00000000E+00  0.00000000E+00
  0.00000000E+00  0.00000000E+00  0.00000000E+00
  0.00000000E+00  0.00000000E+00  0.00000000E+00
  0.00000000E+00  0.00000000E+00  0.00000000E+00
  0.00000000E+00  0.00000000E+00  0.00000000E+00
  0.00000000E+00  0.00000000E+00  0.00000000E+00
  0.00000000E+00  0.00000000E+00  0.00000000E+00
  0.00000000E+00  0.00000000E+00  0.00000000E+00
  0.00000000E+00  0.00000000E+00  0.00000000E+00
  0.00000000E+00  0.00000000E+00  0.00000000E+00
  0.00000000E+00  0.00000000E+00  0.00000000E+00
  0.00000000E+00  0.00000000E+00  0.00000000E+00
  0.00000000E+00  0.00000000E+00  0.00000000E+00
  0.00000000E+00  0.00000000E+00  0.00000000E+00
  0.00000000E+00  0.00000000E+00  0.00000000E+00
  0.00000000E+00  0.00000000E+00  0.00000000E+00
  0.00000000E+00  0.00000000E+00  0.00000000E+00
  0.00000000E+00  0.00000000E+00  0.00000000E+00
  0.00000000E+00  0.00000000E+00  0.00000000E+00
  0.00000000E+00  0.00000000E+00  0.00000000E+00
  0.00000000E+00  0.00000000E+00  0.00000000E+00
  0.00000000E+00  0.00000000E+00  0.00000000E+00
  0.00000000E+00  0.00000000E+00  0.00000000E+00
  0.00000000E+00  0.00000000E+00  0.00000000E+00
  0.00000000E+00  0.00000000E+00  0.00000000E+00
  0.00000000E+00  0.00000000E+00  0.00000000E+00
  0.00000000E+00  0.00000000E+00  0.00000000E+00
  0.00000000E+00  0.00000000E+00  0.00000000E+00
  0.00000000E+00  0.00000000E+00  0.00000000E+00
  0.00000000E+00  0.00000000E+00  0.00000000E+00
  0.00000000E+00  0.00000000E+00  0.00000000E+00
  0.00000000E+00  0.00000000E+00  0.00000000E+00
  0.00000000E+00  0.00000000E+00  0.00000000E+00
  0.00000000E+00  0.00000000E+00  0.00000000E+00
  0.00000000E+00  0.00000000E+00  0.00000000E+00
  0.00000000E+00  0.00000000E+00  0.00000000E+00
  0.00000000E+00  0.00000000E+00  0.00000000E+00
  0.00000000E+00  0.00000000E+00  0.00000000E+00
  0.00000000E+00  0.00000000E+00  0.00000000E+00
  0.00000000E+00  0.00000000E+00  0.00000000E+00
  0.00000000E+00  0.00000000E+00  0.00000000E+00
  0.00000000E+00  0.00000000E+00  0.00000000E+00
  0.00000000E+00  0.00000000E+00  0.00000000E+00
  0.00000000E+00  0.00000000E+00  0.00000000E+00
  0.00000000E+00  0.00000000E+00  0.00000000E+00
  0.00000000E+00  0.00000000E+00  0.00000000E+00
  0.00000000E+00  0.00000000E+00  0.00000000E+00
  0.00000000E+00  0.00000000E+00  0.00000000E+00
  0.00000000E+00  0.00000000E+00  0.00000000E+00
  0.00000000E+00  0.00000000E+00  0.00000000E+00
  0.00000000E+00  0.00000000E+00  0.00000000E+00
  0.00000000E+00  0.00000000E+00  0.00000000E+00
  0.00000000E+00  0.00000000E+00  0.00000000E+00
  0.00000000E+00  0.00000000E+00  0.00000000E+00
  0.00000000E+00  0.00000000E+00  0.00000000E+00
  0.00000000E+00  0.00000000E+00  0.00000000E+00
  0.00000000E+00  0.00000000E+00  0.00000000E+00
  0.00000000E+00  0.00000000E+00  0.00000000E+00
  0.00000000E+00  0.00000000E+00  0.00000000E+00
  0.00000000E+00  0.00000000E+00  0.00000000E+00
  0.00000000E+00  0.00000000E+00  0.00000000E+00
  0.00000000E+00  0.00000000E+00  0.00000000E+00
  0.00000000E+00  0.00000000E+00  0.00000000E+00
  0.00000000E+00  0.00000000E+00  0.00000000E+00
  0.00000000E+00  0.00000000E+00  0.00000000E+00
  0.00000000E+00  0.00000000E+00  0.00000000E+00
  0.00000000E+00  0.00000000E+00  0.00000000E+00
  0.00000000E+00  0.00000000E+00  0.00000000E+00
  0.00000000E+00  0.00000000E+00  0.00000000E+00
  0.00000000E+00  0.00000000E+00  0.00000000E+00
  0.00000000E+00  0.00000000E+00  0.00000000E+00
  0.00000000E+00  0.00000000E+00  0.00000000E+00
  0.00000000E+00  0.00000000E+00  0.00000000E+00
  0.00000000E+00  0.00000000E+00  0.00000000E+00
  0.00000000E+00  0.00000000E+00  0.00000000E+00
  0.00000000E+00  0.00000000E+00  0.00000000E+00
  0.00000000E+00  0.00000000E+00  0.00000000E+00
  0.00000000E+00  0.00000000E+00  0.00000000E+00
  0.00000000E+00  0.00000000E+00  0.00000000E+00
  0.00000000E+00  0.00000000E+00  0.00000000E+00
  0.00000000E+00  0.00000000E+00  0.00000000E+00
  0.00000000E+00  0.00000000E+00  0.00000000E+00
  0.00000000E+00  0.00000000E+00  0.00000000E+00
  0.00000000E+00  0.00000000E+00  0.00000000E+00
  0.00000000E+00  0.00000000E+00  0.00000000E+00
  0.00000000E+00  0.00000000E+00  0.00000000E+00
  0.00000000E+00  0.00000000E+00  0.00000000E+00
  0.00000000E+00  0.00000000E+00  0.00000000E+00
  0.00000000E+00  0.00000000E+00  0.00000000E+00
  0.00000000E+00  0.00000000E+00  0.00000000E+00
  0.00000000E+00  0.00000000E+00  0.00000000E+00
  0.00000000E+00  0.00000000E+00  0.00000000E+00
  0.00000000E+00  0.00000000E+00  0.00000000E+00
  0.00000000E+00  0.00000000E+00  0.00000000E+00
  0.00000000E+00  0.00000000E+00  0.00000000E+00
  0.00000000E+00  0.00000000E+00  0.00000000E+00
  0.00000000E+00  0.00000000E+00  0.00000000E+00
  0.00000000E+00  0.00000000E+00  0.00000000E+00
  0.00000000E+00  0.00000000E+00  0.00000000E+00
  0.00000000E+00  0.00000000E+00  0.00000000E+00
  0.00000000E+00  0.00000000E+00  0.00000000E+00
  0.00000000E+00  0.00000000E+00  0.00000000E+00
  0.00000000E+00  0.00000000E+00  0.00000000E+00
  0.00000000E+00  0.00000000E+00  0.00000000E+00
  0.00000000E+00  0.00000000E+00  0.00000000E+00
  0.00000000E+00  0.00000000E+00  0.00000000E+00
  0.00000000E+00  0.00000000E+00  0.00000000E+00
  0.00000000E+00  0.00000000E+00  0.00000000E+00
  0.00000000E+00  0.00000000E+00  0.00000000E+00
  0.00000000E+00  0.00000000E+00  0.00000000E+00
  0.00000000E+00  0.00000000E+00  0.00000000E+00
  0.00000000E+00  0.00000000E+00  0.00000000E+00
  0.00000000E+00  0.00000000E+00  0.00000000E+00
  0.00000000E+00  0.00000000E+00  0.00000000E+00
  0.00000000E+00  0.00000000E+00  0.00000000E+00
  0.00000000E+00  0.00000000E+00  0.00000000E+00
  0.00000000E+00  0.00000000E+00  0.00000000E+00
  0.00000000E+00  0.00000000E+00  0.00000000E+00
  0.00000000E+00  0.00000000E+00  0.00000000E+00
  0.00000000E+00  0.00000000E+00  0.00000000E+00
  0.00000000E+00  0.00000000E+00  0.00000000E+00
  0.00000000E+00  0.00000000E+00  0.00000000E+00
  0.00000000E+00  0.00000000E+00  0.00000000E+00
  0.00000000E+00  0.00000000E+00  0.00000000E+00
  0.00000000E+00  0.00000000E+00  0.00000000E+00
  0.00000000E+00  0.00000000E+00  0.00000000E+00
  0.00000000E+00  0.00000000E+00  0.00000000E+00
  0.00000000E+00  0.00000000E+00  0.00000000E+00
  0.00000000E+00  0.00000000E+00  0.00000000E+00
  0.00000000E+00  0.00000000E+00  0.00000000E+00
  0.00000000E+00  0.00000000E+00  0.00000000E+00
  0.00000000E+00  0.00000000E+00  0.00000000E+00
  0.00000000E+00  0.00000000E+00  0.00000000E+00
  0.00000000E+00  0.00000000E+00  0.00000000E+00
  0.00000000E+00  0.00000000E+00  0.00000000E+00
  0.00000000E+00  0.00000000E+00  0.00000000E+00
  0.00000000E+00  0.00000000E+00  0.00000000E+00
  0.00000000E+00  0.00000000E+00  0.00000000E+00
  0.00000000E+00  0.00000000E+00  0.00000000E+00
  0.00000000E+00  0.00000000E+00  0.00000000E+00
  0.00000000E+00  0.00000000E+00  0.00000000E+00
  0.00000000E+00  0.00000000E+00  0.00000000E+00
  0.00000000E+00  0.00000000E+00  0.00000000E+00
  0.00000000E+00  0.00000000E+00  0.00000000E+00
  0.00000000E+00  0.00000000E+00  0.00000000E+00
  0.00000000E+00  0.00000000E+00  0.00000000E+00
  0.00000000E+00  0.00000000E+00  0.00000000E+00
  0.00000000E+00  0.00000000E+00  0.00000000E+00
  0.00000000E+00  0.00000000E+00  0.00000000E+00
  0.00000000E+00  0.00000000E+00  0.00000000E+00
  0.00000000E+00  0.00000000E+00  0.00000000E+00
  0.00000000E+00  0.00000000E+00  0.00000000E+00
  0.00000000E+00  0.00000000E+00  0.00000000E+00
  0.00000000E+00  0.00000000E+00  0.00000000E+00
  0.00000000E+00  0.00000000E+00  0.00000000E+00
  0.00000000E+00  0.00000000E+00  0.00000000E+00
  0.00000000E+00  0.00000000E+00  0.00000000E+00
  0.00000000E+00  0.00000000E+00  0.00000000E+00
  0.00000000E+00  0.00000000E+00  0.00000000E+00
  0.00000000E+00  0.00000000E+00  0.00000000E+00
  0.00000000E+00  0.00000000E+00  0.00000000E+00
  0.00000000E+00  0.00000000E+00  0.00000000E+00
  0.00000000E+00  0.00000000E+00  0.00000000E+00
  0.00000000E+00  0.00000000E+00  0.00000000E+00
  0.00000000E+00  0.00000000E+00  0.00000000E+00
  0.00000000E+00  0.00000000E+00  0.00000000E+00
  0.00000000E+00  0.00000000E+00  0.00000000E+00
  0.00000000E+00  0.00000000E+00  0.00000000E+00
  0.00000000E+00  0.00000000E+00  0.00000000E+00
  0.00000000E+00  0.00000000E+00  0.00000000E+00
  0.00000000E+00  0.00000000E+00  0.00000000E+00
  0.00000000E+00  0.00000000E+00  0.00000000E+00
  0.00000000E+00  0.00000000E+00  0.00000000E+00
  0.00000000E+00  0.00000000E+00  0.00000000E+00
  0.00000000E+00  0.00000000E+00  0.00000000E+00
  0.00000000E+00  0.00000000E+00  0.00000000E+00
  0.00000000E+00  0.00000000E+00  0.00000000E+00
  0.00000000E+00  0.00000000E+00  0.00000000E+00
  0.00000000E+00  0.00000000E+00  0.00000000E+00
  0.00000000E+00  0.00000000E+00  0.00000000E+00
  0.00000000E+00  0.00000000E+00  0.00000000E+00