Cu  O Ba  C  H                          
   1.00000000000000     
    15.3360004424999996    0.0000000000000000    0.0000000000000000
   -12.7799997330000004   22.1356088582000012    0.0000000000000000
     0.0000000000000000    0.0000000000000000   30.0000000000000000
   Cu   O    Ba   C    H 
   180    37    36     2     2
Selective dynamics
Direct
  0.0061718624081165  0.0406770449160525  0.1390987579990687   T   T   T
  0.1169499979978781  0.0748900030001138  0.0695599989999991   F   F   F
  0.0614000000017896  0.0082199999993477  0.0000000000000000   F   F   F
  0.1735380702736071  0.0412169817913994  0.1386629713141999   T   T   T
  0.2836200000028697  0.0748900030001138  0.0695599989999991   F   F   F
  0.2280600070018508  0.0082199999993477  0.0000000000000000   F   F   F
  0.3372015051902297  0.0380818666421310  0.1386664405167683   T   T   T
  0.4502800110000607  0.0748900030001138  0.0695599989999991   F   F   F
  0.3947300019971891  0.0082199999993477  0.0000000000000000   F   F   F
  0.5059728604520245  0.0378668248644993  0.1385194896556293   T   T   T
  0.6169499750029672  0.0748900030001138  0.0695599989999991   F   F   F
  0.5613999960013984  0.0082199999993477  0.0000000000000000   F   F   F
  0.6731270318178367  0.0399423182667420  0.1394355063792381   T   T   T
  0.7836199999996083  0.0748900030001138  0.0695599989999991   F   F   F
  0.7280600069985894  0.0082199999993477  0.0000000000000000   F   F   F
  0.8394084056634433  0.0402486601321630  0.1390281773781476   T   T   T
  0.9502800110033220  0.0748900030001138  0.0695599989999991   F   F   F
  0.8947299719991477  0.0082199999993477  0.0000000000000000   F   F   F
  0.0048884798454628  0.1389437805740480  0.1390968764638704   T   T   T
  0.1169499979989439  0.1748899969998305  0.0695599989999991   F   F   F
  0.0613999999979882  0.1082200040010477  0.0000000000000000   F   F   F
  0.1730665183337573  0.1391236760813501  0.1389747139845011   T   T   T
  0.2836199999974127  0.1748899969998305  0.0695599989999991   F   F   F
  0.2280600069980494  0.1082200040010477  0.0000000000000000   F   F   F
  0.3436135429408869  0.1405653801457631  0.1419504682158579   T   T   T
  0.4502800110011265  0.1748899969998305  0.0695599989999991   F   F   F
  0.3947300019999105  0.1082200040010477  0.0000000000000000   F   F   F
  0.5028803573061107  0.1334011668444439  0.1424504747524273   T   T   T
  0.6169499749975103  0.1748899969998305  0.0695599989999991   F   F   F
  0.5613999960041198  0.1082200040010477  0.0000000000000000   F   F   F
  0.6733323293076980  0.1380898270038334  0.1384847999298978   T   T   T
  0.7836200000006741  0.1748899969998305  0.0695599989999991   F   F   F
  0.7280600070013108  0.1082200040010477  0.0000000000000000   F   F   F
  0.8384793242562846  0.1389036077891867  0.1390695396194533   T   T   T
  0.9502800109978651  0.1748899969998305  0.0695599989999991   F   F   F
  0.8947299720018691  0.1082200040010477  0.0000000000000000   F   F   F
  0.0032496048636712  0.2373666866609148  0.1384647389187276   T   T   T
  0.1169499979987236  0.2748900059980031  0.0695599989999991   F   F   F
  0.0614000000011075  0.2082200049985374  0.0000000000000000   F   F   F
  0.1680755568725586  0.2363977467180172  0.1384476261564527   T   T   T
  0.2836199999971925  0.2748900059980031  0.0695599989999991   F   F   F
  0.2280600070011687  0.2082200049985374  0.0000000000000000   F   F   F
  0.3343043816478519  0.2388149460640026  0.1378799762232329   T   T   T
  0.4502800110009062  0.2748900059980031  0.0695599989999991   F   F   F
  0.3947300019965141  0.2082200049985374  0.0000000000000000   F   F   F
  0.5021529890686760  0.2434266269434113  0.1386946583228094   T   T   T
  0.6169499749972900  0.2748900059980031  0.0695599989999991   F   F   F
  0.5613999960007163  0.2082200049985374  0.0000000000000000   F   F   F
  0.6653471384322601  0.2350276057980671  0.1393228680796288   T   T   T
  0.7836200000004538  0.2748900059980031  0.0695599989999991   F   F   F
  0.7280600069979144  0.2082200049985374  0.0000000000000000   F   F   F
  0.8358187845955777  0.2372673292708646  0.1381139610954016   T   T   T
  0.9502800109976448  0.2748900059980031  0.0695599989999991   F   F   F
  0.8947299719984656  0.2082200049985374  0.0000000000000000   F   F   F
  0.0002696529251121  0.3344533578474681  0.1397399539296267   T   T   T
  0.1169499980035553  0.3748900000022317  0.0695599989999991   F   F   F
  0.0613999999956576  0.3082199989982470  0.0000000000000000   F   F   F
  0.1682515267152498  0.3359914655349305  0.1396006333752047   T   T   T
  0.2836200000020241  0.3748900000022317  0.0695599989999991   F   F   F
  0.2280600069957188  0.3082199989982470  0.0000000000000000   F   F   F
  0.3341622346203589  0.3368046568114385  0.1390249652229094   T   T   T
  0.4502800109992151  0.3748900000022317  0.0695599989999991   F   F   F
  0.3947300019975799  0.3082199989982470  0.0000000000000000   F   F   F
  0.5010353162561727  0.3386387848492022  0.1388353536873259   T   T   T
  0.6169499750021217  0.3748900000022317  0.0695599989999991   F   F   F
  0.5613999960017821  0.3082199989982470  0.0000000000000000   F   F   F
  0.6710643843189518  0.3393105255912151  0.1380409909013259   T   T   T
  0.7836199999987628  0.3748900000022317  0.0695599989999991   F   F   F
  0.7280600069989802  0.3082199989982470  0.0000000000000000   F   F   F
  0.8344220545570512  0.3356241832452578  0.1391937558681230   T   T   T
  0.9502800110024765  0.3748900000022317  0.0695599989999991   F   F   F
  0.8947299719995314  0.3082199989982470  0.0000000000000000   F   F   F
  0.0069156470231111  0.4422227309875875  0.1403654529638919   T   T   T
  0.1169499980046211  0.4748899940019484  0.0695599989999991   F   F   F
  0.0613999999967234  0.4082199929979637  0.0000000000000000   F   F   F
  0.1735189359690786  0.4425683881428824  0.1402761456208715   T   T   T
  0.2836200000030900  0.4748899940019484  0.0695599989999991   F   F   F
  0.2280600069967846  0.4082199929979637  0.0000000000000000   F   F   F
  0.3381704041643496  0.4400470476873878  0.1388685916170026   T   T   T
  0.4502800110002809  0.4748899940019484  0.0695599989999991   F   F   F
  0.3947300019986386  0.4082199929979637  0.0000000000000000   F   F   F
  0.5081766491095384  0.4433950790301493  0.1408104907375939   T   T   T
  0.6169499750031875  0.4748899940019484  0.0695599989999991   F   F   F
  0.5613999959963323  0.4082199929979637  0.0000000000000000   F   F   F
  0.6756019689997348  0.4439561397299623  0.1415526804739330   T   T   T
  0.7836199999998286  0.4748899940019484  0.0695599989999991   F   F   F
  0.7280600070000389  0.4082199929979637  0.0000000000000000   F   F   F
  0.8385294937449124  0.4395775245612966  0.1392935776400331   T   T   T
  0.9502800110035423  0.4748899940019484  0.0695599989999991   F   F   F
  0.8947299720005972  0.4082199929979637  0.0000000000000000   F   F   F
  0.0082432255148375  0.5418973111745102  0.1391379226045703   T   T   T
  0.1169499979965920  0.5748900179985768  0.0695599989999991   F   F   F
  0.0613999999989829  0.5082200169991040  0.0000000000000000   F   F   F
  0.1736697297846740  0.5430984235593700  0.1338290611169863   T   T   T
  0.2836200000015836  0.5748900179985768  0.0695599989999991   F   F   F
  0.2280600069990442  0.5082200169991040  0.0000000000000000   F   F   F
  0.3374400008796331  0.5418323002361956  0.1396370640766299   T   T   T
  0.4502800109987746  0.5748900179985768  0.0695599989999991   F   F   F
  0.3947300020008981  0.5082200169991040  0.0000000000000000   F   F   F
  0.5080567300674540  0.5420833869487776  0.1390326767194861   T   T   T
  0.6169499750016811  0.5748900179985768  0.0695599989999991   F   F   F
  0.5613999959985918  0.5082200169991040  0.0000000000000000   F   F   F
  0.6743026036496477  0.5436095083690471  0.1334043371639468   T   T   T
  0.7836199999983222  0.5748900179985768  0.0695599989999991   F   F   F
  0.7280600070022984  0.5082200169991040  0.0000000000000000   F   F   F
  0.8387495753833618  0.5422712146110077  0.1398100832769082   T   T   T
  0.9502800110020360  0.5748900179985768  0.0695599989999991   F   F   F
  0.8947299719963411  0.5082200169991040  0.0000000000000000   F   F   F
  0.0108015944657377  0.6466036508313724  0.1463645282226167   T   T   T
  0.1169499980002300  0.6748899820013747  0.0695599989999991   F   F   F
  0.0614000000026138  0.6082199810019020  0.0000000000000000   F   F   F
  0.1749690295277228  0.6438140505302655  0.1398835750955235   T   T   T
  0.2836199999986988  0.6748899820013747  0.0695599989999991   F   F   F
  0.2280600070026750  0.6082199810019020  0.0000000000000000   F   F   F
  0.3402535850381522  0.6434541730245812  0.1391102175490274   T   T   T
  0.4502800110024126  0.6748899820013747  0.0695599989999991   F   F   F
  0.3947300020045361  0.6082199810019020  0.0000000000000000   F   F   F
  0.5101030029966662  0.6462742469890927  0.1451353472840528   T   T   T
  0.6169499749987963  0.6748899820013747  0.0695599989999991   F   F   F
  0.5613999960022227  0.6082199810019020  0.0000000000000000   F   F   F
  0.6755100024241510  0.6438855983392641  0.1397160379523258   T   T   T
  0.7836200000019602  0.6748899820013747  0.0695599989999991   F   F   F
  0.7280600069994136  0.6082199810019020  0.0000000000000000   F   F   F
  0.8410928821612600  0.6435701631468150  0.1389809699764511   T   T   T
  0.9502800109991512  0.6748899820013747  0.0695599989999991   F   F   F
  0.8947299719999720  0.6082199810019020  0.0000000000000000   F   F   F
  0.0097953110703361  0.7454432360770435  0.1350988618895518   T   T   T
  0.1169499979987236  0.7748900059980031  0.0695599989999991   F   F   F
  0.0614000000011075  0.7082200049985374  0.0000000000000000   F   F   F
  0.1746556573396066  0.7452974399667296  0.1344397247087705   T   T   T
  0.2836199999971925  0.7748900059980031  0.0695599989999991   F   F   F
  0.2280600070011687  0.7082200049985374  0.0000000000000000   F   F   F
  0.3417335351368861  0.7439005984037349  0.1388488008160853   T   T   T
  0.4502800110009062  0.7748900059980031  0.0695599989999991   F   F   F
  0.3947300019965141  0.7082200049985374  0.0000000000000000   F   F   F
  0.5099994783916222  0.7454421662929681  0.1349609337710449   T   T   T
  0.6169499749972900  0.7748900059980031  0.0695599989999991   F   F   F
  0.5613999960007163  0.7082200049985374  0.0000000000000000   F   F   F
  0.6749439293589012  0.7454908291095762  0.1344806923897387   T   T   T
  0.7836200000004538  0.7748900059980031  0.0695599989999991   F   F   F
  0.7280600069979144  0.7082200049985374  0.0000000000000000   F   F   F
  0.8417877743449327  0.7440841618263314  0.1388171643018942   T   T   T
  0.9502800109976448  0.7748900059980031  0.0695599989999991   F   F   F
  0.8947299719984656  0.7082200049985374  0.0000000000000000   F   F   F
  0.0067478650763535  0.8425524648615398  0.1406001174223743   T   T   T
  0.1169499980036264  0.8748900290007597  0.0695599989999991   F   F   F
  0.0613999999968513  0.8082200289996777  0.0000000000000000   F   F   F
  0.1735679550230798  0.8427786685309228  0.1408489408858254   T   T   T
  0.2836200000020952  0.8748900290007597  0.0695599989999991   F   F   F
  0.2280600069969125  0.8082200289996777  0.0000000000000000   F   F   F
  0.3402503365907809  0.8421682473563625  0.1400468185304140   T   T   T
  0.4502800109992933  0.8748900290007597  0.0695599989999991   F   F   F
  0.3947300019987736  0.8082200289996777  0.0000000000000000   F   F   F
  0.5069639805046973  0.8422038624363888  0.1406315432165592   T   T   T
  0.6169499750021927  0.8748900290007597  0.0695599989999991   F   F   F
  0.5613999960029759  0.8082200289996777  0.0000000000000000   F   F   F
  0.6739734911674767  0.8429947824895753  0.1409949905552023   T   T   T
  0.7836199999988409  0.8748900290007597  0.0695599989999991   F   F   F
  0.7280600070001739  0.8082200289996777  0.0000000000000000   F   F   F
  0.8403707456200594  0.8425396222570731  0.1401862033415476   T   T   T
  0.9502800110025476  0.8748900290007597  0.0695599989999991   F   F   F
  0.8947299720007251  0.8082200289996777  0.0000000000000000   F   F   F
  0.0063896146364560  0.9415676799234840  0.1393517723191035   T   T   T
  0.1169499980046211  0.9748899940019484  0.0695599989999991   F   F   F
  0.0613999999967234  0.9082199929979637  0.0000000000000000   F   F   F
  0.1718899298720914  0.9410032947981917  0.1396131413985026   T   T   T
  0.2836200000030900  0.9748899940019484  0.0695599989999991   F   F   F
  0.2280600069967846  0.9082199929979637  0.0000000000000000   F   F   F
  0.3389232433679025  0.9402660565532955  0.1395631291958853   T   T   T
  0.4502800110002809  0.9748899940019484  0.0695599989999991   F   F   F
  0.3947300019986386  0.9082199929979637  0.0000000000000000   F   F   F
  0.5062798846403905  0.9404126153070266  0.1394731563796686   T   T   T
  0.6169499750031875  0.9748899940019484  0.0695599989999991   F   F   F
  0.5613999959963252  0.9082199929979637  0.0000000000000000   F   F   F
  0.6728059502630850  0.9411066130824702  0.1395770938976178   T   T   T
  0.7836199999998286  0.9748899940019484  0.0695599989999991   F   F   F
  0.7280600070000389  0.9082199929979637  0.0000000000000000   F   F   F
  0.8396174936110223  0.9411946072406341  0.1395154777713757   T   T   T
  0.9502800110035423  0.9748899940019484  0.0695599989999991   F   F   F
  0.8947299720005972  0.9082199929979637  0.0000000000000000   F   F   F
  0.2818044783313949  0.3722744599927819  0.1853842553760102   T   T   T
  0.5557831264429960  0.3984677468188883  0.1855823791333644   T   T   T
  0.7801256130538872  0.3679745838131567  0.1867782730089124   T   T   T
  0.0550483372498607  0.3978050641237363  0.1839464011663121   T   T   T
  0.1089585857295603  0.4612424834998620  0.2953484604114441   T   T   T
  0.2696513563967008  0.5030374525705432  0.1970100638697689   T   T   T
  0.3592561052878719  0.4599418591238488  0.2966320108881126   T   T   T
  0.5125810278832084  0.5010113235434333  0.1951035055258387   T   T   T
  0.6094770686375128  0.4612700472402307  0.2953509307554104   T   T   T
  0.7717265219569561  0.5004311231956446  0.1966733042036257   T   T   T
  0.8590392223059280  0.4602171792537062  0.2970578385527087   T   T   T
  0.0140581279517989  0.5010904691159398  0.1953229938525749   T   T   T
  0.1112108907430083  0.6043330524731916  0.3079715803302265   T   T   T
  0.2786813723941264  0.6704624424413121  0.1950330494981402   T   T   T
  0.1924763398218517  0.5644621891015972  0.4075803281492724   T   T   T
  0.3538927434265112  0.6044213141547299  0.3032716015678381   T   T   T
  0.5321653274641148  0.6683248799751059  0.2114255046070060   T   T   T
  0.4412900652233249  0.5686151831414205  0.4047948886781531   T   T   T
  0.6108731394583078  0.6057384539146334  0.3055246572291741   T   T   T
  0.7762128014282083  0.6688674280390173  0.1948619969695105   T   T   T
  0.6935536212147451  0.5663627212006597  0.4064817328050334   T   T   T
  0.8519981290946186  0.6063315570132967  0.3028231697137834   T   T   T
  0.0361693674601851  0.6683636616903635  0.2135434957909962   T   T   T
  0.9438808298281510  0.5709179943915540  0.4050819694676925   T   T   T
  0.1428115302393707  0.7741747331800672  0.3046427938366010   T   T   T
  0.1920113939997359  0.7180279768181267  0.4105097417114328   T   T   T
  0.4018367057726194  0.7738278495334997  0.3083305878801274   T   T   T
  0.4102991255336168  0.7039628177846559  0.4310240024851313   T   T   T
  0.6459081909992103  0.7770838316123885  0.3062245910282256   T   T   T
  0.6796295004042907  0.7073253970162158  0.4138666526618752   T   T   T
  0.9040542115130170  0.7776453917837519  0.3053609823567900   T   T   T
  0.9164208895148880  0.7068071338636717  0.4268490597195938   T   T   T
  0.1621232160654397  0.8781462422736681  0.3953834730399210   T   T   T
  0.3836069120583102  0.8659026696711464  0.4313900807908070   T   T   T
  0.6578986221705868  0.8800685760439895  0.3951180364082589   T   T   T
  0.8863689059422148  0.8669457627114058  0.4200198210631997   T   T   T
  0.6144514303143478  0.2412808818666405  0.2291567515648597   T   T   T
  0.2710927403795614  0.5027356923329600  0.3460743433126743   T   T   T
  0.1847892719755695  0.4033963777689792  0.2419652344604731   T   T   T
  0.5225748378111393  0.5022279556225179  0.3458946857634750   T   T   T
  0.4311166998861740  0.4014292079940990  0.2418878155640534   T   T   T
  0.7709752004914148  0.5044279488568496  0.3458942705428774   T   T   T
  0.6830055950061272  0.4002554329468854  0.2431936899416402   T   T   T
  0.0211445315511303  0.5009367250816810  0.3470690564958547   T   T   T
  0.9336495450310126  0.4026832602525606  0.2420721608823218   T   T   T
  0.0989518245011045  0.6062734574639336  0.4480172164626037   T   T   T
  0.2869350774479628  0.6618090487846859  0.3490119403801645   T   T   T
  0.1906091765526128  0.5618836824578485  0.2379819632969843   T   T   T
  0.3406110698889569  0.5953028427559623  0.4563081646359901   T   T   T
  0.5337748373161204  0.6618630665635764  0.3400384956144044   T   T   T
  0.4408117398051260  0.5591508387875199  0.2395256960799322   T   T   T
  0.5939186822044495  0.6011695979045183  0.4501121436772100   T   T   T
  0.7861754129040840  0.6659074867364856  0.3483394303732616   T   T   T
  0.6902113988171119  0.5594224313590818  0.2371039157410745   T   T   T
  0.8430587774572544  0.5987346216032889  0.4550785213461466   T   T   T
  0.0308824553175547  0.6616948022918256  0.3391776287846172   T   T   T
  0.9407380060366476  0.5584463064793843  0.2397236784578067   T   T   T
  0.0996102717302416  0.7744409536468437  0.4397452442748028   T   T   T
  0.3057493222153427  0.8131475420473046  0.3503466240915367   T   T   T
  0.2128221332415896  0.7386177659146693  0.2327267547423151   T   T   T
  0.3378207184483160  0.7624830997471470  0.4691623439767269   T   T   T
  0.5881010847965825  0.8520593586804187  0.3124339628630645   T   T   T
  0.4481871174589844  0.7258230669450245  0.2338607761703974   T   T   T
  0.5962839730615120  0.7723924946969142  0.4333295323699562   T   T   T
  0.8258729381930335  0.8338693389052669  0.3350933600458454   T   T   T
  0.7084781521552438  0.7343332064858030  0.2324321489885507   T   T   T
  0.8367411544279043  0.7647740629058890  0.4603106483008871   T   T   T
  0.0957676881024960  0.8518965372476190  0.3111698211238158   T   T   T
  0.9468690150680520  0.7234219863869027  0.2340283482920380   T   T   T
  0.0723754272100256  0.9285607000855517  0.4298472501191365   T   T   T
  0.3358848673658741  0.9447034658600768  0.4239344260243305   T   T   T
  0.5690776635230411  0.9254123126151310  0.4379912762322098   T   T   T
  0.8302062238904878  0.9425153146369617  0.4256672502607908   T   T   T
  0.4611233154584026  0.1769906772110496  0.1886712119760506   T   T   T
  0.5645766817021857  0.2147827165035953  0.1889821179125977   T   T   T
  0.4189743408666016  0.1662422271790379  0.2202253697858087   T   T   T
  0.6847552982318892  0.2682164826354279  0.2202323409938244   T   T   T
 
  0.00000000E+00  0.00000000E+00  0.00000000E+00
  0.00000000E+00  0.00000000E+00  0.00000000E+00
  0.00000000E+00  0.00000000E+00  0.00000000E+00
  0.00000000E+00  0.00000000E+00  0.00000000E+00
  0.00000000E+00  0.00000000E+00  0.00000000E+00
  0.00000000E+00  0.00000000E+00  0.00000000E+00
  0.00000000E+00  0.00000000E+00  0.00000000E+00
  0.00000000E+00  0.00000000E+00  0.00000000E+00
  0.00000000E+00  0.00000000E+00  0.00000000E+00
  0.00000000E+00  0.00000000E+00  0.00000000E+00
  0.00000000E+00  0.00000000E+00  0.00000000E+00
  0.00000000E+00  0.00000000E+00  0.00000000E+00
  0.00000000E+00  0.00000000E+00  0.00000000E+00
  0.00000000E+00  0.00000000E+00  0.00000000E+00
  0.00000000E+00  0.00000000E+00  0.00000000E+00
  0.00000000E+00  0.00000000E+00  0.00000000E+00
  0.00000000E+00  0.00000000E+00  0.00000000E+00
  0.00000000E+00  0.00000000E+00  0.00000000E+00
  0.00000000E+00  0.00000000E+00  0.00000000E+00
  0.00000000E+00  0.00000000E+00  0.00000000E+00
  0.00000000E+00  0.00000000E+00  0.00000000E+00
  0.00000000E+00  0.00000000E+00  0.00000000E+00
  0.00000000E+00  0.00000000E+00  0.00000000E+00
  0.00000000E+00  0.00000000E+00  0.00000000E+00
  0.00000000E+00  0.00000000E+00  0.00000000E+00
  0.00000000E+00  0.00000000E+00  0.00000000E+00
  0.00000000E+00  0.00000000E+00  0.00000000E+00
  0.00000000E+00  0.00000000E+00  0.00000000E+00
  0.00000000E+00  0.00000000E+00  0.00000000E+00
  0.00000000E+00  0.00000000E+00  0.00000000E+00
  0.00000000E+00  0.00000000E+00  0.00000000E+00
  0.00000000E+00  0.00000000E+00  0.00000000E+00
  0.00000000E+00  0.00000000E+00  0.00000000E+00
  0.00000000E+00  0.00000000E+00  0.00000000E+00
  0.00000000E+00  0.00000000E+00  0.00000000E+00
  0.00000000E+00  0.00000000E+00  0.00000000E+00
  0.00000000E+00  0.00000000E+00  0.00000000E+00
  0.00000000E+00  0.00000000E+00  0.00000000E+00
  0.00000000E+00  0.00000000E+00  0.00000000E+00
  0.00000000E+00  0.00000000E+00  0.00000000E+00
  0.00000000E+00  0.00000000E+00  0.00000000E+00
  0.00000000E+00  0.00000000E+00  0.00000000E+00
  0.00000000E+00  0.00000000E+00  0.00000000E+00
  0.00000000E+00  0.00000000E+00  0.00000000E+00
  0.00000000E+00  0.00000000E+00  0.00000000E+00
  0.00000000E+00  0.00000000E+00  0.00000000E+00
  0.00000000E+00  0.00000000E+00  0.00000000E+00
  0.00000000E+00  0.00000000E+00  0.00000000E+00
  0.00000000E+00  0.00000000E+00  0.00000000E+00
  0.00000000E+00  0.00000000E+00  0.00000000E+00
  0.00000000E+00  0.00000000E+00  0.00000000E+00
  0.00000000E+00  0.00000000E+00  0.00000000E+00
  0.00000000E+00  0.00000000E+00  0.00000000E+00
  0.00000000E+00  0.00000000E+00  0.00000000E+00
  0.00000000E+00  0.00000000E+00  0.00000000E+00
  0.00000000E+00  0.00000000E+00  0.00000000E+00
  0.00000000E+00  0.00000000E+00  0.00000000E+00
  0.00000000E+00  0.00000000E+00  0.00000000E+00
  0.00000000E+00  0.00000000E+00  0.00000000E+00
  0.00000000E+00  0.00000000E+00  0.00000000E+00
  0.00000000E+00  0.00000000E+00  0.00000000E+00
  0.00000000E+00  0.00000000E+00  0.00000000E+00
  0.00000000E+00  0.00000000E+00  0.00000000E+00
  0.00000000E+00  0.00000000E+00  0.00000000E+00
  0.00000000E+00  0.00000000E+00  0.00000000E+00
  0.00000000E+00  0.00000000E+00  0.00000000E+00
  0.00000000E+00  0.00000000E+00  0.00000000E+00
  0.00000000E+00  0.00000000E+00  0.00000000E+00
  0.00000000E+00  0.00000000E+00  0.00000000E+00
  0.00000000E+00  0.00000000E+00  0.00000000E+00
  0.00000000E+00  0.00000000E+00  0.00000000E+00
  0.00000000E+00  0.00000000E+00  0.00000000E+00
  0.00000000E+00  0.00000000E+00  0.00000000E+00
  0.00000000E+00  0.00000000E+00  0.00000000E+00
  0.00000000E+00  0.00000000E+00  0.00000000E+00
  0.00000000E+00  0.00000000E+00  0.00000000E+00
  0.00000000E+00  0.00000000E+00  0.00000000E+00
  0.00000000E+00  0.00000000E+00  0.00000000E+00
  0.00000000E+00  0.00000000E+00  0.00000000E+00
  0.00000000E+00  0.00000000E+00  0.00000000E+00
  0.00000000E+00  0.00000000E+00  0.00000000E+00
  0.00000000E+00  0.00000000E+00  0.00000000E+00
  0.00000000E+00  0.00000000E+00  0.00000000E+00
  0.00000000E+00  0.00000000E+00  0.00000000E+00
  0.00000000E+00  0.00000000E+00  0.00000000E+00
  0.00000000E+00  0.00000000E+00  0.00000000E+00
  0.00000000E+00  0.00000000E+00  0.00000000E+00
  0.00000000E+00  0.00000000E+00  0.00000000E+00
  0.00000000E+00  0.00000000E+00  0.00000000E+00
  0.00000000E+00  0.00000000E+00  0.00000000E+00
  0.00000000E+00  0.00000000E+00  0.00000000E+00
  0.00000000E+00  0.00000000E+00  0.00000000E+00
  0.00000000E+00  0.00000000E+00  0.00000000E+00
  0.00000000E+00  0.00000000E+00  0.00000000E+00
  0.00000000E+00  0.00000000E+00  0.00000000E+00
  0.00000000E+00  0.00000000E+00  0.00000000E+00
  0.00000000E+00  0.00000000E+00  0.00000000E+00
  0.00000000E+00  0.00000000E+00  0.00000000E+00
  0.00000000E+00  0.00000000E+00  0.00000000E+00
  0.00000000E+00  0.00000000E+00  0.00000000E+00
  0.00000000E+00  0.00000000E+00  0.00000000E+00
  0.00000000E+00  0.00000000E+00  0.00000000E+00
  0.00000000E+00  0.00000000E+00  0.00000000E+00
  0.00000000E+00  0.00000000E+00  0.00000000E+00
  0.00000000E+00  0.00000000E+00  0.00000000E+00
  0.00000000E+00  0.00000000E+00  0.00000000E+00
  0.00000000E+00  0.00000000E+00  0.00000000E+00
  0.00000000E+00  0.00000000E+00  0.00000000E+00
  0.00000000E+00  0.00000000E+00  0.00000000E+00
  0.00000000E+00  0.00000000E+00  0.00000000E+00
  0.00000000E+00  0.00000000E+00  0.00000000E+00
  0.00000000E+00  0.00000000E+00  0.00000000E+00
  0.00000000E+00  0.00000000E+00  0.00000000E+00
  0.00000000E+00  0.00000000E+00  0.00000000E+00
  0.00000000E+00  0.00000000E+00  0.00000000E+00
  0.00000000E+00  0.00000000E+00  0.00000000E+00
  0.00000000E+00  0.00000000E+00  0.00000000E+00
  0.00000000E+00  0.00000000E+00  0.00000000E+00
  0.00000000E+00  0.00000000E+00  0.00000000E+00
  0.00000000E+00  0.00000000E+00  0.00000000E+00
  0.00000000E+00  0.00000000E+00  0.00000000E+00
  0.00000000E+00  0.00000000E+00  0.00000000E+00
  0.00000000E+00  0.00000000E+00  0.00000000E+00
  0.00000000E+00  0.00000000E+00  0.00000000E+00
  0.00000000E+00  0.00000000E+00  0.00000000E+00
  0.00000000E+00  0.00000000E+00  0.00000000E+00
  0.00000000E+00  0.00000000E+00  0.00000000E+00
  0.00000000E+00  0.00000000E+00  0.00000000E+00
  0.00000000E+00  0.00000000E+00  0.00000000E+00
  0.00000000E+00  0.00000000E+00  0.00000000E+00
  0.00000000E+00  0.00000000E+00  0.00000000E+00
  0.00000000E+00  0.00000000E+00  0.00000000E+00
  0.00000000E+00  0.00000000E+00  0.00000000E+00
  0.00000000E+00  0.00000000E+00  0.00000000E+00
  0.00000000E+00  0.00000000E+00  0.00000000E+00
  0.00000000E+00  0.00000000E+00  0.00000000E+00
  0.00000000E+00  0.00000000E+00  0.00000000E+00
  0.00000000E+00  0.00000000E+00  0.00000000E+00
  0.00000000E+00  0.00000000E+00  0.00000000E+00
  0.00000000E+00  0.00000000E+00  0.00000000E+00
  0.00000000E+00  0.00000000E+00  0.00000000E+00
  0.00000000E+00  0.00000000E+00  0.00000000E+00
  0.00000000E+00  0.00000000E+00  0.00000000E+00
  0.00000000E+00  0.00000000E+00  0.00000000E+00
  0.00000000E+00  0.00000000E+00  0.00000000E+00
  0.00000000E+00  0.00000000E+00  0.00000000E+00
  0.00000000E+00  0.00000000E+00  0.00000000E+00
  0.00000000E+00  0.00000000E+00  0.00000000E+00
  0.00000000E+00  0.00000000E+00  0.00000000E+00
  0.00000000E+00  0.00000000E+00  0.00000000E+00
  0.00000000E+00  0.00000000E+00  0.00000000E+00
  0.00000000E+00  0.00000000E+00  0.00000000E+00
  0.00000000E+00  0.00000000E+00  0.00000000E+00
  0.00000000E+00  0.00000000E+00  0.00000000E+00
  0.00000000E+00  0.00000000E+00  0.00000000E+00
  0.00000000E+00  0.00000000E+00  0.00000000E+00
  0.00000000E+00  0.00000000E+00  0.00000000E+00
  0.00000000E+00  0.00000000E+00  0.00000000E+00
  0.00000000E+00  0.00000000E+00  0.00000000E+00
  0.00000000E+00  0.00000000E+00  0.00000000E+00
  0.00000000E+00  0.00000000E+00  0.00000000E+00
  0.00000000E+00  0.00000000E+00  0.00000000E+00
  0.00000000E+00  0.00000000E+00  0.00000000E+00
  0.00000000E+00  0.00000000E+00  0.00000000E+00
  0.00000000E+00  0.00000000E+00  0.00000000E+00
  0.00000000E+00  0.00000000E+00  0.00000000E+00
  0.00000000E+00  0.00000000E+00  0.00000000E+00
  0.00000000E+00  0.00000000E+00  0.00000000E+00
  0.00000000E+00  0.00000000E+00  0.00000000E+00
  0.00000000E+00  0.00000000E+00  0.00000000E+00
  0.00000000E+00  0.00000000E+00  0.00000000E+00
  0.00000000E+00  0.00000000E+00  0.00000000E+00
  0.00000000E+00  0.00000000E+00  0.00000000E+00
  0.00000000E+00  0.00000000E+00  0.00000000E+00
  0.00000000E+00  0.00000000E+00  0.00000000E+00
  0.00000000E+00  0.00000000E+00  0.00000000E+00
  0.00000000E+00  0.00000000E+00  0.00000000E+00
  0.00000000E+00  0.00000000E+00  0.00000000E+00
  0.00000000E+00  0.00000000E+00  0.00000000E+00
  0.00000000E+00  0.00000000E+00  0.00000000E+00
  0.00000000E+00  0.00000000E+00  0.00000000E+00
  0.00000000E+00  0.00000000E+00  0.00000000E+00
  0.00000000E+00  0.00000000E+00  0.00000000E+00
  0.00000000E+00  0.00000000E+00  0.00000000E+00
  0.00000000E+00  0.00000000E+00  0.00000000E+00
  0.00000000E+00  0.00000000E+00  0.00000000E+00
  0.00000000E+00  0.00000000E+00  0.00000000E+00
  0.00000000E+00  0.00000000E+00  0.00000000E+00
  0.00000000E+00  0.00000000E+00  0.00000000E+00
  0.00000000E+00  0.00000000E+00  0.00000000E+00
  0.00000000E+00  0.00000000E+00  0.00000000E+00
  0.00000000E+00  0.00000000E+00  0.00000000E+00
  0.00000000E+00  0.00000000E+00  0.00000000E+00
  0.00000000E+00  0.00000000E+00  0.00000000E+00
  0.00000000E+00  0.00000000E+00  0.00000000E+00
  0.00000000E+00  0.00000000E+00  0.00000000E+00
  0.00000000E+00  0.00000000E+00  0.00000000E+00
  0.00000000E+00  0.00000000E+00  0.00000000E+00
  0.00000000E+00  0.00000000E+00  0.00000000E+00
  0.00000000E+00  0.00000000E+00  0.00000000E+00
  0.00000000E+00  0.00000000E+00  0.00000000E+00
  0.00000000E+00  0.00000000E+00  0.00000000E+00
  0.00000000E+00  0.00000000E+00  0.00000000E+00
  0.00000000E+00  0.00000000E+00  0.00000000E+00
  0.00000000E+00  0.00000000E+00  0.00000000E+00
  0.00000000E+00  0.00000000E+00  0.00000000E+00
  0.00000000E+00  0.00000000E+00  0.00000000E+00
  0.00000000E+00  0.00000000E+00  0.00000000E+00
  0.00000000E+00  0.00000000E+00  0.00000000E+00
  0.00000000E+00  0.00000000E+00  0.00000000E+00
  0.00000000E+00  0.00000000E+00  0.00000000E+00
  0.00000000E+00  0.00000000E+00  0.00000000E+00
  0.00000000E+00  0.00000000E+00  0.00000000E+00
  0.00000000E+00  0.00000000E+00  0.00000000E+00
  0.00000000E+00  0.00000000E+00  0.00000000E+00
  0.00000000E+00  0.00000000E+00  0.00000000E+00
  0.00000000E+00  0.00000000E+00  0.00000000E+00
  0.00000000E+00  0.00000000E+00  0.00000000E+00
  0.00000000E+00  0.00000000E+00  0.00000000E+00
  0.00000000E+00  0.00000000E+00  0.00000000E+00
  0.00000000E+00  0.00000000E+00  0.00000000E+00
  0.00000000E+00  0.00000000E+00  0.00000000E+00