Ba  O Cu                                
   1.00000000000000     
    15.6213999999999995    0.0000000000000000    0.0000000000000000
     0.0000000000000000   11.0459999999999994    0.0000000000000000
     0.0000000000000000    0.0000000000000000   30.0000000000000000
   Ba   O    Cu
    24    24    36
Selective dynamics
Direct
  0.0000000000000000  0.0000000000000000  0.0892100000000013   F   F   F
  0.0655547591160215 -0.0494732535527894  0.2243262383259826   T   T   T
  0.1237360373823714  0.2403451179069613  0.1477226655190730   T   T   T
  0.2500000000000000  0.0000000000000000  0.0892100000000013   F   F   F
  0.3114815214018825  0.0358680702815570  0.2238196993910221   T   T   T
  0.3823728237259306  0.2478894432354321  0.1447545887584006   T   T   T
  0.0000000000000000  0.5000000000000000  0.0892100000000013   F   F   F
  0.0051469646036898  0.5367175998746215  0.2203041122701092   T   T   T
  0.1264129658643470  0.7497587181610572  0.1421557771177074   T   T   T
  0.2500000000000000  0.5000000000000000  0.0892100000000013   F   F   F
  0.2516443730437223  0.4710866938225102  0.2161490806472444   T   T   T
  0.3735300977333873  0.7610826661404093  0.1467177568191563   T   T   T
  0.5000000000000000  0.0000000000000000  0.0892100000000013   F   F   F
  0.5606814279948661 -0.0196053427882219  0.2271568770940729   T   T   T
  0.6318922019646098  0.2430869610418564  0.1474474703712126   T   T   T
  0.7500000000000000  0.0000000000000000  0.0892100000000013   F   F   F
  0.8292143892062386  0.0655027964297464  0.2315868110139179   T   T   T
  0.8792168427366577  0.2510451394187004  0.1442504353909161   T   T   T
  0.5000000000000000  0.5000000000000000  0.0892100000000013   F   F   F
  0.5072671163224450  0.5419922053721347  0.2160032220094515   T   T   T
  0.6329362699747013  0.7521645225957203  0.1453024731035592   T   T   T
  0.7500000000000000  0.5000000000000000  0.0892100000000013   F   F   F
  0.7573996711596880  0.4853176770668992  0.2191935662455291   T   T   T
  0.8708937029832337  0.7592201665265180  0.1518558825641574   T   T   T
  0.0000000000000000  0.2500000000000000  0.0892100000000013   F   F   F
 -0.0274160606584339  0.1689451527498088  0.2219227479020402   T   T   T
  0.1214352323699152  0.0020710865595779  0.1409955119742427   T   T   T
  0.2500000000000000  0.2500000000000000  0.0892100000000013   F   F   F
  0.2320628954825594  0.2460642799484809  0.2190757926975236   T   T   T
  0.3732490497119733  0.0044558404192978  0.1403320763722045   T   T   T
  0.0000000000000000  0.7500000000000000  0.0892100000000013   F   F   F
  0.0010391779741222  0.7472816216803092  0.2092360947468368   T   T   T
  0.1253436920804058  0.4968306296141743  0.1498419335782580   T   T   T
  0.2500000000000000  0.7500000000000000  0.0892100000000013   F   F   F
  0.2272897639399656  0.8275301657444089  0.2105474349358907   T   T   T
  0.3769190412359844  0.5025544605781743  0.1506539424957345   T   T   T
  0.5000000000000000  0.2500000000000000  0.0892100000000013   F   F   F
  0.4620062797371273  0.1585275872297473  0.2286219060394028   T   T   T
  0.6193593237458824 -0.0020623393471159  0.1453272213386604   T   T   T
  0.7500000000000000  0.2500000000000000  0.0892100000000013   F   F   F
  0.7498657059378793  0.2403703643458026  0.2102554948851424   T   T   T
  0.8686509672609436  0.0043011506174487  0.1446024138130458   T   T   T
  0.5000000000000000  0.7500000000000000  0.0892100000000013   F   F   F
  0.4860305784994039  0.7669578993546664  0.2202488473216771   T   T   T
  0.6188641021700120  0.4920091422170947  0.1483550401571940   T   T   T
  0.7500000000000000  0.7500000000000000  0.0892100000000013   F   F   F
  0.7418749152589040  0.6967133569942445  0.2066066336775485   T   T   T
  0.8766555847799762  0.4970130464760245  0.1487079616841098   T   T   T
  0.0247680377531444  0.2368580676947638  0.2713507299025414   T   T   T
  0.0189524455890523  0.2606394690198933  0.3664831264221633   T   T   T
  0.1861741616784906  0.2406245828673986  0.3617811818917780   T   T   T
  0.1944742378200139  0.2392616805410313  0.2807571551950113   T   T   T
  0.1102980539236870  0.1024728837613360  0.4088756833279215   T   T   T
  0.0849808899000260  0.1028496023323068  0.3262992667991081   T   T   T
  0.3805759151240137  0.4439783357947993  0.2972250031601609   T   T   T
  0.2641669688383171  0.3760398712602129  0.4141168833731845   T   T   T
  0.4893708665775837  0.3642555903736792  0.3457561038040833   T   T   T
  0.4447167856412726  0.2070131370257539  0.2882937132465378   T   T   T
  0.4137655455393967  0.3248294704968701  0.4179488304955408   T   T   T
  0.3396051896102955  0.2880771059418025  0.3473344527627075   T   T   T
  0.1518857128488982  0.5979073317671457  0.2996202634027709   T   T   T
  0.0707956220843357  0.6148551804615382  0.3695749746706336   T   T   T
  0.2172182786393607  0.5822468917438774  0.3982045954047556   T   T   T
  0.2371475716344993  0.4419644299596582  0.3328859612572353   T   T   T
  0.1134497031651549  0.4147824270202229  0.3979671705410373   T   T   T
  0.0860737823168867  0.4019698071659015  0.3162780887010140   T   T   T
  0.4337086778191256  0.7707313212893498  0.2782925909821430   T   T   T
  0.3079540001536227  0.7566403444283358  0.4027955051219254   T   T   T
  0.4432655149166028  0.7702168596460878  0.3632735994739251   T   T   T
  0.4772656385277483  0.5855334451641728  0.3269012661858422   T   T   T
  0.3730748114844399  0.5278581813917576  0.3853025102814730   T   T   T
  0.3156702853968175  0.6392832393954254  0.3209443153843627   T   T   T
  0.1853507812519141  0.9536940015595541  0.3108804081490873   T   T   T
  0.0754677431419257  0.9123265523587125  0.3693506480241733   T   T   T
  0.2249336291353805  0.9537068145483424  0.3950689130756252   T   T   T
  0.2356912899347799  0.7689267015605766  0.2673981768075532   T   T   T
  0.1427650153116932  0.7694025927104182  0.4230731033913054   T   T   T
  0.1841469017566832  0.7612537612258418  0.3475219301563698   T   T   T
  0.3007886708784916  0.0843485121524416  0.3336000546666297   T   T   T
  0.3019268510345462  0.1524683806000045  0.4122988671705152   T   T   T
  0.4485609937591664  0.1495240745325477  0.3709686358798697   T   T   T
  0.4476034670702077  0.9776368405590011  0.3216778155016718   T   T   T
  0.3827425179679863  0.9587481046864270  0.3976029197460233   T   T   T
  0.3214520969810210  0.8625180320615440  0.3280702909844082   T   T   T
 
  0.00000000E+00  0.00000000E+00  0.00000000E+00
  0.00000000E+00  0.00000000E+00  0.00000000E+00
  0.00000000E+00  0.00000000E+00  0.00000000E+00
  0.00000000E+00  0.00000000E+00  0.00000000E+00
  0.00000000E+00  0.00000000E+00  0.00000000E+00
  0.00000000E+00  0.00000000E+00  0.00000000E+00
  0.00000000E+00  0.00000000E+00  0.00000000E+00
  0.00000000E+00  0.00000000E+00  0.00000000E+00
  0.00000000E+00  0.00000000E+00  0.00000000E+00
  0.00000000E+00  0.00000000E+00  0.00000000E+00
  0.00000000E+00  0.00000000E+00  0.00000000E+00
  0.00000000E+00  0.00000000E+00  0.00000000E+00
  0.00000000E+00  0.00000000E+00  0.00000000E+00
  0.00000000E+00  0.00000000E+00  0.00000000E+00
  0.00000000E+00  0.00000000E+00  0.00000000E+00
  0.00000000E+00  0.00000000E+00  0.00000000E+00
  0.00000000E+00  0.00000000E+00  0.00000000E+00
  0.00000000E+00  0.00000000E+00  0.00000000E+00
  0.00000000E+00  0.00000000E+00  0.00000000E+00
  0.00000000E+00  0.00000000E+00  0.00000000E+00
  0.00000000E+00  0.00000000E+00  0.00000000E+00
  0.00000000E+00  0.00000000E+00  0.00000000E+00
  0.00000000E+00  0.00000000E+00  0.00000000E+00
  0.00000000E+00  0.00000000E+00  0.00000000E+00
  0.00000000E+00  0.00000000E+00  0.00000000E+00
  0.00000000E+00  0.00000000E+00  0.00000000E+00
  0.00000000E+00  0.00000000E+00  0.00000000E+00
  0.00000000E+00  0.00000000E+00  0.00000000E+00
  0.00000000E+00  0.00000000E+00  0.00000000E+00
  0.00000000E+00  0.00000000E+00  0.00000000E+00
  0.00000000E+00  0.00000000E+00  0.00000000E+00
  0.00000000E+00  0.00000000E+00  0.00000000E+00
  0.00000000E+00  0.00000000E+00  0.00000000E+00
  0.00000000E+00  0.00000000E+00  0.00000000E+00
  0.00000000E+00  0.00000000E+00  0.00000000E+00
  0.00000000E+00  0.00000000E+00  0.00000000E+00
  0.00000000E+00  0.00000000E+00  0.00000000E+00
  0.00000000E+00  0.00000000E+00  0.00000000E+00
  0.00000000E+00  0.00000000E+00  0.00000000E+00
  0.00000000E+00  0.00000000E+00  0.00000000E+00
  0.00000000E+00  0.00000000E+00  0.00000000E+00
  0.00000000E+00  0.00000000E+00  0.00000000E+00
  0.00000000E+00  0.00000000E+00  0.00000000E+00
  0.00000000E+00  0.00000000E+00  0.00000000E+00
  0.00000000E+00  0.00000000E+00  0.00000000E+00
  0.00000000E+00  0.00000000E+00  0.00000000E+00
  0.00000000E+00  0.00000000E+00  0.00000000E+00
  0.00000000E+00  0.00000000E+00  0.00000000E+00
  0.00000000E+00  0.00000000E+00  0.00000000E+00
  0.00000000E+00  0.00000000E+00  0.00000000E+00
  0.00000000E+00  0.00000000E+00  0.00000000E+00
  0.00000000E+00  0.00000000E+00  0.00000000E+00
  0.00000000E+00  0.00000000E+00  0.00000000E+00
  0.00000000E+00  0.00000000E+00  0.00000000E+00
  0.00000000E+00  0.00000000E+00  0.00000000E+00
  0.00000000E+00  0.00000000E+00  0.00000000E+00
  0.00000000E+00  0.00000000E+00  0.00000000E+00
  0.00000000E+00  0.00000000E+00  0.00000000E+00
  0.00000000E+00  0.00000000E+00  0.00000000E+00
  0.00000000E+00  0.00000000E+00  0.00000000E+00
  0.00000000E+00  0.00000000E+00  0.00000000E+00
  0.00000000E+00  0.00000000E+00  0.00000000E+00
  0.00000000E+00  0.00000000E+00  0.00000000E+00
  0.00000000E+00  0.00000000E+00  0.00000000E+00
  0.00000000E+00  0.00000000E+00  0.00000000E+00
  0.00000000E+00  0.00000000E+00  0.00000000E+00
  0.00000000E+00  0.00000000E+00  0.00000000E+00
  0.00000000E+00  0.00000000E+00  0.00000000E+00
  0.00000000E+00  0.00000000E+00  0.00000000E+00
  0.00000000E+00  0.00000000E+00  0.00000000E+00
  0.00000000E+00  0.00000000E+00  0.00000000E+00
  0.00000000E+00  0.00000000E+00  0.00000000E+00
  0.00000000E+00  0.00000000E+00  0.00000000E+00
  0.00000000E+00  0.00000000E+00  0.00000000E+00
  0.00000000E+00  0.00000000E+00  0.00000000E+00
  0.00000000E+00  0.00000000E+00  0.00000000E+00
  0.00000000E+00  0.00000000E+00  0.00000000E+00
  0.00000000E+00  0.00000000E+00  0.00000000E+00
  0.00000000E+00  0.00000000E+00  0.00000000E+00
  0.00000000E+00  0.00000000E+00  0.00000000E+00
  0.00000000E+00  0.00000000E+00  0.00000000E+00
  0.00000000E+00  0.00000000E+00  0.00000000E+00
  0.00000000E+00  0.00000000E+00  0.00000000E+00
  0.00000000E+00  0.00000000E+00  0.00000000E+00
