Cu Ba  O                                
   1.00000000000000     
    15.3359000000000005    0.0000000000000000    0.0000000000000000
     0.0000000000000000   20.4478000000000009    0.0000000000000000
     0.0000000000000000    0.0000000000000000   33.6146999999999991
   Cu   Ba   O 
   144    24    24
Selective dynamics
Direct
  0.0478499999999968  0.0963899999999995  0.0000000000000000   F   F   F
  0.0481331417622410  0.0961069865119188  0.1069712976831508   T   T   T
  0.1311800000000005  0.0338899999999995  0.0537700000000001   F   F   F
  0.2145200000000003  0.0963899999999995  0.0000000000000000   F   F   F
  0.2150116773405198  0.0967717768542873  0.1072390549304960   T   T   T
  0.2978499999999968  0.0338899999999995  0.0537700000000001   F   F   F
  0.3811800000000005  0.0963899999999995  0.0000000000000000   F   F   F
  0.3805175545680408  0.0958720962994568  0.1071593261862461   T   T   T
  0.4645200000000003  0.0338899999999995  0.0537700000000001   F   F   F
  0.5478499999999968  0.0963899999999995  0.0000000000000000   F   F   F
  0.5481379245952552  0.0960241211707679  0.1069924043719798   T   T   T
  0.6311800000000005  0.0338899999999995  0.0537700000000001   F   F   F
  0.7145200000000003  0.0963899999999995  0.0000000000000000   F   F   F
  0.7150067358182580  0.0971308928771984  0.1072736099314561   T   T   T
  0.7978499999999968  0.0338899999999995  0.0537700000000001   F   F   F
  0.8811800000000005  0.0963899999999995  0.0000000000000000   F   F   F
  0.8805865042676434  0.0957495934223382  0.1071523582013940   T   T   T
  0.9645200000000003  0.0338899999999995  0.0537700000000001   F   F   F
  0.0478499999999968  0.2213899999999995  0.0000000000000000   F   F   F
  0.0479802095132804  0.2211222361799061  0.1073449414531147   T   T   T
  0.1311800000000005  0.1588899999999995  0.0537700000000001   F   F   F
  0.2145200000000003  0.2213899999999995  0.0000000000000000   F   F   F
  0.2148284580505664  0.2210227600493063  0.1076097511418571   T   T   T
  0.2978499999999968  0.1588899999999995  0.0537700000000001   F   F   F
  0.3811800000000005  0.2213899999999995  0.0000000000000000   F   F   F
  0.3809294271161712  0.2204668537363162  0.1069152434203298   T   T   T
  0.4645200000000003  0.1588899999999995  0.0537700000000001   F   F   F
  0.5478499999999968  0.2213899999999995  0.0000000000000000   F   F   F
  0.5479949588345204  0.2210822525459720  0.1073552127144104   T   T   T
  0.6311800000000005  0.1588899999999995  0.0537700000000001   F   F   F
  0.7145200000000003  0.2213899999999995  0.0000000000000000   F   F   F
  0.7148384440581386  0.2211185120102874  0.1076077259548688   T   T   T
  0.7978499999999968  0.1588899999999995  0.0537700000000001   F   F   F
  0.8811800000000005  0.2213899999999995  0.0000000000000000   F   F   F
  0.8809708618877566  0.2204024858590415  0.1068937217060915   T   T   T
  0.9645200000000003  0.1588899999999995  0.0537700000000001   F   F   F
  0.0478499999999968  0.3463899999999995  0.0000000000000000   F   F   F
  0.0490416356286999  0.3458228630674552  0.1072573444727550   T   T   T
  0.1311800000000005  0.2838899999999995  0.0537700000000001   F   F   F
  0.2145200000000003  0.3463899999999995  0.0000000000000000   F   F   F
  0.2111959549976868  0.3449168280027518  0.1070013168789602   T   T   T
  0.2978499999999968  0.2838899999999995  0.0537700000000001   F   F   F
  0.3811800000000005  0.3463899999999995  0.0000000000000000   F   F   F
  0.3794857093028642  0.3434108539436510  0.1127690409406362   T   T   T
  0.4645200000000003  0.2838899999999995  0.0537700000000001   F   F   F
  0.5478499999999968  0.3463899999999995  0.0000000000000000   F   F   F
  0.5490345591599427  0.3457847225723658  0.1072553749279903   T   T   T
  0.6311800000000005  0.2838899999999995  0.0537700000000001   F   F   F
  0.7145200000000003  0.3463899999999995  0.0000000000000000   F   F   F
  0.7111942801492922  0.3449900166768861  0.1070347280957457   T   T   T
  0.7978499999999968  0.2838899999999995  0.0537700000000001   F   F   F
  0.8811800000000005  0.3463899999999995  0.0000000000000000   F   F   F
  0.8794654683314935  0.3432503462202709  0.1125905267766500   T   T   T
  0.9645200000000003  0.2838899999999995  0.0537700000000001   F   F   F
  0.0478499999999968  0.4713899999999995  0.0000000000000000   F   F   F
  0.0505776278811934  0.4720981154221138  0.1072784947233784   T   T   T
  0.1311800000000005  0.4088899999999995  0.0537700000000001   F   F   F
  0.2145200000000003  0.4713899999999995  0.0000000000000000   F   F   F
  0.2119657328259058  0.4697992849389657  0.1020635933512641   T   T   T
  0.2978499999999968  0.4088899999999995  0.0537700000000001   F   F   F
  0.3811800000000005  0.4713899999999995  0.0000000000000000   F   F   F
  0.3847214198805355  0.4710530636536190  0.1097748897414056   T   T   T
  0.4645200000000003  0.4088899999999995  0.0537700000000001   F   F   F
  0.5478499999999968  0.4713899999999995  0.0000000000000000   F   F   F
  0.5505152629666774  0.4720706112255101  0.1072722325161154   T   T   T
  0.6311800000000005  0.4088899999999995  0.0537700000000001   F   F   F
  0.7145200000000003  0.4713899999999995  0.0000000000000000   F   F   F
  0.7117533401044109  0.4699307254778419  0.1018115636554574   T   T   T
  0.7978499999999968  0.4088899999999995  0.0537700000000001   F   F   F
  0.8811800000000005  0.4713899999999995  0.0000000000000000   F   F   F
  0.8846217047154358  0.4712694096129619  0.1094960607632814   T   T   T
  0.9645200000000003  0.4088899999999995  0.0537700000000001   F   F   F
  0.0511100000000013  0.5963899999999995  0.0000000000000000   F   F   F
  0.0449676176432177  0.5966009344684384  0.1062850738650448   T   T   T
  0.1311800000000005  0.5338899999999995  0.0537700000000001   F   F   F
  0.2145200000000003  0.5963899999999995  0.0000000000000000   F   F   F
  0.2122570640769968  0.5939984299147127  0.1096015373006376   T   T   T
  0.2978499999999968  0.5338899999999995  0.0537700000000001   F   F   F
  0.3811800000000005  0.5963899999999995  0.0000000000000000   F   F   F
  0.3786283969291697  0.5969540054774533  0.1115159543831078   T   T   T
  0.4645200000000003  0.5338899999999995  0.0537700000000001   F   F   F
  0.5478499999999968  0.5963899999999995  0.0000000000000000   F   F   F
  0.5446930711475813  0.5965236801782300  0.1063515221176080   T   T   T
  0.6311800000000005  0.5338899999999995  0.0537700000000001   F   F   F
  0.7145200000000003  0.5963899999999995  0.0000000000000000   F   F   F
  0.7121426499949545  0.5945725451520536  0.1097843568145266   T   T   T
  0.7978499999999968  0.5338899999999995  0.0537700000000001   F   F   F
  0.8811800000000005  0.5963899999999995  0.0000000000000000   F   F   F
  0.8784759005245216  0.5972593191121081  0.1116640059256936   T   T   T
  0.9645200000000003  0.5338899999999995  0.0537700000000001   F   F   F
  0.0478499999999968  0.7213899999999995  0.0000000000000000   F   F   F
  0.0468827551209125  0.7206997589293315  0.1072390482868837   T   T   T
  0.1311800000000005  0.6588899999999995  0.0537700000000001   F   F   F
  0.2145200000000003  0.7213899999999995  0.0000000000000000   F   F   F
  0.2162211786775589  0.7303343686039615  0.1156930012543577   T   T   T
  0.2978499999999968  0.6588899999999995  0.0537700000000001   F   F   F
  0.3811800000000005  0.7213899999999995  0.0000000000000000   F   F   F
  0.3834028165349104  0.7211037596352378  0.1044173741704553   T   T   T
  0.4645200000000003  0.6588899999999995  0.0537700000000001   F   F   F
  0.5478499999999968  0.7213899999999995  0.0000000000000000   F   F   F
  0.5469081651619428  0.7205698506779952  0.1070690718852246   T   T   T
  0.6311800000000005  0.6588899999999995  0.0537700000000001   F   F   F
  0.7145200000000003  0.7213899999999995  0.0000000000000000   F   F   F
  0.7157733882093453  0.7315302851552729  0.1158168166004385   T   T   T
  0.7978499999999968  0.6588899999999995  0.0537700000000001   F   F   F
  0.8811800000000005  0.7213899999999995  0.0000000000000000   F   F   F
  0.8832171232359429  0.7213428431977107  0.1045862371610589   T   T   T
  0.9645200000000003  0.6588899999999995  0.0537700000000001   F   F   F
  0.0478499999999968  0.8463899999999995  0.0000000000000000   F   F   F
  0.0472224054484405  0.8463677166816849  0.1064966510335491   T   T   T
  0.1311800000000005  0.7838899999999995  0.0537700000000001   F   F   F
  0.2145200000000003  0.8463899999999995  0.0000000000000000   F   F   F
  0.2153548656530389  0.8510802980860237  0.1073559217121175   T   T   T
  0.2978499999999968  0.7838899999999995  0.0537700000000001   F   F   F
  0.3811800000000005  0.8463899999999995  0.0000000000000000   F   F   F
  0.3821128291771422  0.8470133393734111  0.1057365628251678   T   T   T
  0.4645200000000003  0.7838899999999995  0.0537700000000001   F   F   F
  0.5478499999999968  0.8463899999999995  0.0000000000000000   F   F   F
  0.5473082037915721  0.8462929440214770  0.1065513181303458   T   T   T
  0.6311800000000005  0.7838899999999995  0.0537700000000001   F   F   F
  0.7145200000000003  0.8463899999999995  0.0000000000000000   F   F   F
  0.7155491711682790  0.8517097401401615  0.1073548700128025   T   T   T
  0.7978499999999968  0.7838899999999995  0.0537700000000001   F   F   F
  0.8811800000000005  0.8463899999999995  0.0000000000000000   F   F   F
  0.8821971655324752  0.8467602800013527  0.1059951445210956   T   T   T
  0.9645200000000003  0.7838899999999995  0.0537700000000001   F   F   F
  0.0478499999999968  0.9713899999999995  0.0000000000000000   F   F   F
  0.0484169111340510  0.9705500491746329  0.1073108394067970   T   T   T
  0.1311800000000005  0.9088899999999995  0.0537700000000001   F   F   F
  0.2145200000000003  0.9713899999999995  0.0000000000000000   F   F   F
  0.2145288961194667  0.9728841060333567  0.1078383049938573   T   T   T
  0.2978499999999968  0.9088899999999995  0.0537700000000001   F   F   F
  0.3811800000000005  0.9713899999999995  0.0000000000000000   F   F   F
  0.3808342181697280  0.9708238531406541  0.1073005211685901   T   T   T
  0.4645200000000003  0.9088899999999995  0.0537700000000001   F   F   F
  0.5478499999999968  0.9713899999999995  0.0000000000000000   F   F   F
  0.5484806225519208  0.9704829662057554  0.1073110719926458   T   T   T
  0.6311800000000005  0.9088899999999995  0.0537700000000001   F   F   F
  0.7145200000000003  0.9713899999999995  0.0000000000000000   F   F   F
  0.7145009223939733  0.9733518759057516  0.1078550599815855   T   T   T
  0.7978499999999968  0.9088899999999995  0.0537700000000001   F   F   F
  0.8811800000000005  0.9713899999999995  0.0000000000000000   F   F   F
  0.8808244307209103  0.9706320882653331  0.1073206296211984   T   T   T
  0.9645200000000003  0.9088899999999995  0.0537700000000001   F   F   F
  0.2366396547449444  0.4595189101517874  0.1886128051865827   T   T   T
  0.9833880699806038  0.4023905960303169  0.2170109478430981   T   T   T
  0.8797914865692363  0.4748654772897065  0.3107730850336750   T   T   T
  0.1057138342994683  0.5234071121826595  0.2892849987915520   T   T   T
  0.7360994366961711  0.4630944311059759  0.1880144741173594   T   T   T
  0.4837496839516524  0.3996964055400293  0.2181894777421520   T   T   T
  0.3812295458511062  0.4727704983522024  0.3121504997829334   T   T   T
  0.6046318219278438  0.5236222623726960  0.2893284402774665   T   T   T
  0.1581517990957751  0.6444974835379527  0.1971625687456065   T   T   T
  0.9332970149744917  0.5762467930986225  0.2080807164162025   T   T   T
  0.8233404021452920  0.6674217956736532  0.3099512778760697   T   T   T
  0.0490596292757730  0.7079276827090145  0.2894328771607053   T   T   T
  0.6550847892240993  0.6471572162628441  0.1968923084481487   T   T   T
  0.4326763137648876  0.5726051302545705  0.2076529627554246   T   T   T
  0.3262676010641268  0.6679077969950007  0.3076684167826050   T   T   T
  0.5497055612458289  0.7086378149020205  0.2894808952267061   T   T   T
  0.1292891568276489  0.8504587336323834  0.2016969903965815   T   T   T
  0.8876028776258769  0.7727564860714097  0.1949217113909708   T   T   T
  0.7387016855533139  0.8476844106167231  0.3292595965293421   T   T   T
 -0.0292064429343612  0.8863139028945324  0.2871507926437228   T   T   T
  0.6349948446433387  0.8573339576946785  0.2018324666068525   T   T   T
  0.3910720599945047  0.7724760876879181  0.1935052758008921   T   T   T
  0.2389218714812060  0.8492161756882973  0.3281021421022635   T   T   T
  0.4718411287215947  0.8868302753966785  0.2859436110962045   T   T   T
  0.0088505528173527  0.4241014015445492  0.2912939129432782   T   T   T
  0.3475397661512134  0.4702475556794202  0.2414331548177649   T   T   T
  0.3811531858888582  0.4100124223624705  0.1535754315339964   T   T   T
  0.0827604564363952  0.5097412102305312  0.2165297117536346   T   T   T
  0.5105304930050372  0.4227242051768284  0.2919368050185201   T   T   T
  0.8485048091802917  0.4727882731889364  0.2402136932348616   T   T   T
  0.8791657929841756  0.4101594004736390  0.1530780720450668   T   T   T
  0.5812896882744411  0.5077594929578538  0.2167110951599386   T   T   T
  0.9529650768755894  0.5891234078115658  0.2988389199818660   T   T   T
  0.1871580069370334  0.6407783615644315  0.2760868116205658   T   T   T
  0.2901099711133673  0.5780826558882945  0.1566689396551386   T   T   T
  0.0009495437965148  0.6904470080221354  0.2209220848356055   T   T   T
  0.4541166004690240  0.5863777678245652  0.3007826651413622   T   T   T
  0.6870523978733061  0.6427285919920572  0.2751666392649567   T   T   T
  0.7898348695898000  0.5820611717800052  0.1572742292382800   T   T   T
  0.4950598443687645  0.6869151531669235  0.2225419155394804   T   T   T
  0.8654658435603421  0.7890712432670380  0.3026705926271688   T   T   T
  0.1196346976713948  0.8331521133934759  0.2841985188658306   T   T   T
  0.2199397991920807  0.7546960772096234  0.1721315826102590   T   T   T
  0.9740735286737925  0.8658906178968909  0.2192472954728723   T   T   T
  0.3656306228381707  0.7909973772323305  0.3023360786727303   T   T   T
  0.6208093538201204  0.8340433477080545  0.2845130005894145   T   T   T
  0.7157870313087580  0.7574643944026848  0.1723487203995094   T   T   T
  0.4791753340078534  0.8652277089251448  0.2180602171731135   T   T   T
 
  0.00000000E+00  0.00000000E+00  0.00000000E+00
  0.00000000E+00  0.00000000E+00  0.00000000E+00
  0.00000000E+00  0.00000000E+00  0.00000000E+00
  0.00000000E+00  0.00000000E+00  0.00000000E+00
  0.00000000E+00  0.00000000E+00  0.00000000E+00
  0.00000000E+00  0.00000000E+00  0.00000000E+00
  0.00000000E+00  0.00000000E+00  0.00000000E+00
  0.00000000E+00  0.00000000E+00  0.00000000E+00
  0.00000000E+00  0.00000000E+00  0.00000000E+00
  0.00000000E+00  0.00000000E+00  0.00000000E+00
  0.00000000E+00  0.00000000E+00  0.00000000E+00
  0.00000000E+00  0.00000000E+00  0.00000000E+00
  0.00000000E+00  0.00000000E+00  0.00000000E+00
  0.00000000E+00  0.00000000E+00  0.00000000E+00
  0.00000000E+00  0.00000000E+00  0.00000000E+00
  0.00000000E+00  0.00000000E+00  0.00000000E+00
  0.00000000E+00  0.00000000E+00  0.00000000E+00
  0.00000000E+00  0.00000000E+00  0.00000000E+00
  0.00000000E+00  0.00000000E+00  0.00000000E+00
  0.00000000E+00  0.00000000E+00  0.00000000E+00
  0.00000000E+00  0.00000000E+00  0.00000000E+00
  0.00000000E+00  0.00000000E+00  0.00000000E+00
  0.00000000E+00  0.00000000E+00  0.00000000E+00
  0.00000000E+00  0.00000000E+00  0.00000000E+00
  0.00000000E+00  0.00000000E+00  0.00000000E+00
  0.00000000E+00  0.00000000E+00  0.00000000E+00
  0.00000000E+00  0.00000000E+00  0.00000000E+00
  0.00000000E+00  0.00000000E+00  0.00000000E+00
  0.00000000E+00  0.00000000E+00  0.00000000E+00
  0.00000000E+00  0.00000000E+00  0.00000000E+00
  0.00000000E+00  0.00000000E+00  0.00000000E+00
  0.00000000E+00  0.00000000E+00  0.00000000E+00
  0.00000000E+00  0.00000000E+00  0.00000000E+00
  0.00000000E+00  0.00000000E+00  0.00000000E+00
  0.00000000E+00  0.00000000E+00  0.00000000E+00
  0.00000000E+00  0.00000000E+00  0.00000000E+00
  0.00000000E+00  0.00000000E+00  0.00000000E+00
  0.00000000E+00  0.00000000E+00  0.00000000E+00
  0.00000000E+00  0.00000000E+00  0.00000000E+00
  0.00000000E+00  0.00000000E+00  0.00000000E+00
  0.00000000E+00  0.00000000E+00  0.00000000E+00
  0.00000000E+00  0.00000000E+00  0.00000000E+00
  0.00000000E+00  0.00000000E+00  0.00000000E+00
  0.00000000E+00  0.00000000E+00  0.00000000E+00
  0.00000000E+00  0.00000000E+00  0.00000000E+00
  0.00000000E+00  0.00000000E+00  0.00000000E+00
  0.00000000E+00  0.00000000E+00  0.00000000E+00
  0.00000000E+00  0.00000000E+00  0.00000000E+00
  0.00000000E+00  0.00000000E+00  0.00000000E+00
  0.00000000E+00  0.00000000E+00  0.00000000E+00
  0.00000000E+00  0.00000000E+00  0.00000000E+00
  0.00000000E+00  0.00000000E+00  0.00000000E+00
  0.00000000E+00  0.00000000E+00  0.00000000E+00
  0.00000000E+00  0.00000000E+00  0.00000000E+00
  0.00000000E+00  0.00000000E+00  0.00000000E+00
  0.00000000E+00  0.00000000E+00  0.00000000E+00
  0.00000000E+00  0.00000000E+00  0.00000000E+00
  0.00000000E+00  0.00000000E+00  0.00000000E+00
  0.00000000E+00  0.00000000E+00  0.00000000E+00
  0.00000000E+00  0.00000000E+00  0.00000000E+00
  0.00000000E+00  0.00000000E+00  0.00000000E+00
  0.00000000E+00  0.00000000E+00  0.00000000E+00
  0.00000000E+00  0.00000000E+00  0.00000000E+00
  0.00000000E+00  0.00000000E+00  0.00000000E+00
  0.00000000E+00  0.00000000E+00  0.00000000E+00
  0.00000000E+00  0.00000000E+00  0.00000000E+00
  0.00000000E+00  0.00000000E+00  0.00000000E+00
  0.00000000E+00  0.00000000E+00  0.00000000E+00
  0.00000000E+00  0.00000000E+00  0.00000000E+00
  0.00000000E+00  0.00000000E+00  0.00000000E+00
  0.00000000E+00  0.00000000E+00  0.00000000E+00
  0.00000000E+00  0.00000000E+00  0.00000000E+00
  0.00000000E+00  0.00000000E+00  0.00000000E+00
  0.00000000E+00  0.00000000E+00  0.00000000E+00
  0.00000000E+00  0.00000000E+00  0.00000000E+00
  0.00000000E+00  0.00000000E+00  0.00000000E+00
  0.00000000E+00  0.00000000E+00  0.00000000E+00
  0.00000000E+00  0.00000000E+00  0.00000000E+00
  0.00000000E+00  0.00000000E+00  0.00000000E+00
  0.00000000E+00  0.00000000E+00  0.00000000E+00
  0.00000000E+00  0.00000000E+00  0.00000000E+00
  0.00000000E+00  0.00000000E+00  0.00000000E+00
  0.00000000E+00  0.00000000E+00  0.00000000E+00
  0.00000000E+00  0.00000000E+00  0.00000000E+00
  0.00000000E+00  0.00000000E+00  0.00000000E+00
  0.00000000E+00  0.00000000E+00  0.00000000E+00
  0.00000000E+00  0.00000000E+00  0.00000000E+00
  0.00000000E+00  0.00000000E+00  0.00000000E+00
  0.00000000E+00  0.00000000E+00  0.00000000E+00
  0.00000000E+00  0.00000000E+00  0.00000000E+00
  0.00000000E+00  0.00000000E+00  0.00000000E+00
  0.00000000E+00  0.00000000E+00  0.00000000E+00
  0.00000000E+00  0.00000000E+00  0.00000000E+00
  0.00000000E+00  0.00000000E+00  0.00000000E+00
  0.00000000E+00  0.00000000E+00  0.00000000E+00
  0.00000000E+00  0.00000000E+00  0.00000000E+00
  0.00000000E+00  0.00000000E+00  0.00000000E+00
  0.00000000E+00  0.00000000E+00  0.00000000E+00
  0.00000000E+00  0.00000000E+00  0.00000000E+00
  0.00000000E+00  0.00000000E+00  0.00000000E+00
  0.00000000E+00  0.00000000E+00  0.00000000E+00
  0.00000000E+00  0.00000000E+00  0.00000000E+00
  0.00000000E+00  0.00000000E+00  0.00000000E+00
  0.00000000E+00  0.00000000E+00  0.00000000E+00
  0.00000000E+00  0.00000000E+00  0.00000000E+00
  0.00000000E+00  0.00000000E+00  0.00000000E+00
  0.00000000E+00  0.00000000E+00  0.00000000E+00
  0.00000000E+00  0.00000000E+00  0.00000000E+00
  0.00000000E+00  0.00000000E+00  0.00000000E+00
  0.00000000E+00  0.00000000E+00  0.00000000E+00
  0.00000000E+00  0.00000000E+00  0.00000000E+00
  0.00000000E+00  0.00000000E+00  0.00000000E+00
  0.00000000E+00  0.00000000E+00  0.00000000E+00
  0.00000000E+00  0.00000000E+00  0.00000000E+00
  0.00000000E+00  0.00000000E+00  0.00000000E+00
  0.00000000E+00  0.00000000E+00  0.00000000E+00
  0.00000000E+00  0.00000000E+00  0.00000000E+00
  0.00000000E+00  0.00000000E+00  0.00000000E+00
  0.00000000E+00  0.00000000E+00  0.00000000E+00
  0.00000000E+00  0.00000000E+00  0.00000000E+00
  0.00000000E+00  0.00000000E+00  0.00000000E+00
  0.00000000E+00  0.00000000E+00  0.00000000E+00
  0.00000000E+00  0.00000000E+00  0.00000000E+00
  0.00000000E+00  0.00000000E+00  0.00000000E+00
  0.00000000E+00  0.00000000E+00  0.00000000E+00
  0.00000000E+00  0.00000000E+00  0.00000000E+00
  0.00000000E+00  0.00000000E+00  0.00000000E+00
  0.00000000E+00  0.00000000E+00  0.00000000E+00
  0.00000000E+00  0.00000000E+00  0.00000000E+00
  0.00000000E+00  0.00000000E+00  0.00000000E+00
  0.00000000E+00  0.00000000E+00  0.00000000E+00
  0.00000000E+00  0.00000000E+00  0.00000000E+00
  0.00000000E+00  0.00000000E+00  0.00000000E+00
  0.00000000E+00  0.00000000E+00  0.00000000E+00
  0.00000000E+00  0.00000000E+00  0.00000000E+00
  0.00000000E+00  0.00000000E+00  0.00000000E+00
  0.00000000E+00  0.00000000E+00  0.00000000E+00
  0.00000000E+00  0.00000000E+00  0.00000000E+00
  0.00000000E+00  0.00000000E+00  0.00000000E+00
  0.00000000E+00  0.00000000E+00  0.00000000E+00
  0.00000000E+00  0.00000000E+00  0.00000000E+00
  0.00000000E+00  0.00000000E+00  0.00000000E+00
  0.00000000E+00  0.00000000E+00  0.00000000E+00
  0.00000000E+00  0.00000000E+00  0.00000000E+00
  0.00000000E+00  0.00000000E+00  0.00000000E+00
  0.00000000E+00  0.00000000E+00  0.00000000E+00
  0.00000000E+00  0.00000000E+00  0.00000000E+00
  0.00000000E+00  0.00000000E+00  0.00000000E+00
  0.00000000E+00  0.00000000E+00  0.00000000E+00
  0.00000000E+00  0.00000000E+00  0.00000000E+00
  0.00000000E+00  0.00000000E+00  0.00000000E+00
  0.00000000E+00  0.00000000E+00  0.00000000E+00
  0.00000000E+00  0.00000000E+00  0.00000000E+00
  0.00000000E+00  0.00000000E+00  0.00000000E+00
  0.00000000E+00  0.00000000E+00  0.00000000E+00
  0.00000000E+00  0.00000000E+00  0.00000000E+00
  0.00000000E+00  0.00000000E+00  0.00000000E+00
  0.00000000E+00  0.00000000E+00  0.00000000E+00
  0.00000000E+00  0.00000000E+00  0.00000000E+00
  0.00000000E+00  0.00000000E+00  0.00000000E+00
  0.00000000E+00  0.00000000E+00  0.00000000E+00
  0.00000000E+00  0.00000000E+00  0.00000000E+00
  0.00000000E+00  0.00000000E+00  0.00000000E+00
  0.00000000E+00  0.00000000E+00  0.00000000E+00
  0.00000000E+00  0.00000000E+00  0.00000000E+00
  0.00000000E+00  0.00000000E+00  0.00000000E+00
  0.00000000E+00  0.00000000E+00  0.00000000E+00
  0.00000000E+00  0.00000000E+00  0.00000000E+00
  0.00000000E+00  0.00000000E+00  0.00000000E+00
  0.00000000E+00  0.00000000E+00  0.00000000E+00
  0.00000000E+00  0.00000000E+00  0.00000000E+00
  0.00000000E+00  0.00000000E+00  0.00000000E+00
  0.00000000E+00  0.00000000E+00  0.00000000E+00
  0.00000000E+00  0.00000000E+00  0.00000000E+00
  0.00000000E+00  0.00000000E+00  0.00000000E+00
  0.00000000E+00  0.00000000E+00  0.00000000E+00
  0.00000000E+00  0.00000000E+00  0.00000000E+00
  0.00000000E+00  0.00000000E+00  0.00000000E+00
  0.00000000E+00  0.00000000E+00  0.00000000E+00
  0.00000000E+00  0.00000000E+00  0.00000000E+00
  0.00000000E+00  0.00000000E+00  0.00000000E+00
  0.00000000E+00  0.00000000E+00  0.00000000E+00
  0.00000000E+00  0.00000000E+00  0.00000000E+00
  0.00000000E+00  0.00000000E+00  0.00000000E+00
  0.00000000E+00  0.00000000E+00  0.00000000E+00
  0.00000000E+00  0.00000000E+00  0.00000000E+00
  0.00000000E+00  0.00000000E+00  0.00000000E+00
  0.00000000E+00  0.00000000E+00  0.00000000E+00
  0.00000000E+00  0.00000000E+00  0.00000000E+00
  0.00000000E+00  0.00000000E+00  0.00000000E+00
  0.00000000E+00  0.00000000E+00  0.00000000E+00
  0.00000000E+00  0.00000000E+00  0.00000000E+00
