Ba  O Cu                                
   1.00000000000000     
    20.2927999999999997    0.0000000000000000    0.0000000000000000
    -3.3821555777867389   11.2173090738218537    0.0000000000000000
     0.0000000000000000    0.0000000000000000   30.1631000000000000
   Ba   O    Cu
    27    27    36
Selective dynamics
Direct
  0.1743447593477858  0.2191755753943977  0.1177091891023958   T   T   T
  0.1948900000000009  0.0634599999999992  0.0000000000000000   F   F   F
  0.0223029080017463  0.3104975915931343  0.0617431313405571   T   T   T
  0.5203970783257211  0.2301455196276481  0.1136273323175152   T   T   T
  0.5282199999999975  0.0634599999999992  0.0000000000000000   F   F   F
  0.3594468787658454  0.3155875562649020  0.0684368240187279   T   T   T
  0.8425204112776340  0.2211594768884939  0.1206318869193251   T   T   T
  0.8615500000000011  0.0634599999999992  0.0000000000000000   F   F   F
  0.6908404178631056  0.3121310346240733  0.0575674188944925   T   T   T
  0.1748420849110028  0.5530816143396831  0.1176070578312523   T   T   T
  0.1948900000000009  0.3967900000000029  0.0000000000000000   F   F   F
  0.0230309964170014  0.6439284144632751  0.0613372899932091   T   T   T
  0.5233919892579735  0.5669958911848837  0.1158804183037454   T   T   T
  0.5282199999999975  0.3967900000000029  0.0000000000000000   F   F   F
  0.3603212798882564  0.6482964282851128  0.0691478292392341   T   T   T
  0.8450498713661014  0.5566627480529367  0.1187740935399015   T   T   T
  0.8615500000000011  0.3967900000000029  0.0000000000000000   F   F   F
  0.6920353999470042  0.6464157413989390  0.0596362966881209   T   T   T
  0.1745127666241656  0.8865467992513097  0.1178437033284732   T   T   T
  0.1948900000000009  0.7301199999999994  0.0000000000000000   F   F   F
  0.0226230268284905  0.9770349398313899  0.0612874365623594   T   T   T
  0.5232563160444296  0.8988581824435620  0.1142666960105740   T   T   T
  0.5282199999999975  0.7301199999999994  0.0000000000000000   F   F   F
  0.3590025854645096  0.9804264607366877  0.0674303824859562   T   T   T
  0.8457337942069095  0.8935624532998369  0.1211097958870467   T   T   T
  0.8615500000000011  0.7301199999999994  0.0000000000000000   F   F   F
  0.6918196162638891  0.9785802557310005  0.0597763845142022   T   T   T
  0.1039800000000000  0.1846699999999970  0.0275999999999996   F   F   F
  0.0989924555634136  0.0151735810766692  0.1225664778260905   T   T   T
  0.2610204384479264  0.0986958191712752  0.0652230058261966   T   T   T
  0.4373099999999965  0.1846699999999970  0.0275999999999996   F   F   F
  0.4394775496184079  0.0208465690579035  0.1336715051282819   T   T   T
  0.5927041198060530  0.0975720784875747  0.0645286965037484   T   T   T
  0.7706500000000034  0.1846699999999970  0.0275999999999996   F   F   F
  0.7569177585313233  0.0114101434648647  0.1302302673749449   T   T   T
  0.9141792273265790  0.0907935244020565  0.0702384344536013   T   T   T
  0.1039800000000000  0.5180000000000007  0.0275999999999996   F   F   F
  0.0996483464814749  0.3490818703225075  0.1224873673450384   T   T   T
  0.2617896451470570  0.4329764692385962  0.0650958012856538   T   T   T
  0.4373099999999965  0.5180000000000007  0.0275999999999996   F   F   F
  0.4388407476763718  0.3583224245078079  0.1360869679807608   T   T   T
  0.5926217435190672  0.4309134323055786  0.0645206167449658   T   T   T
  0.7706500000000034  0.5180000000000007  0.0275999999999996   F   F   F
  0.7579190380405099  0.3477220480345994  0.1277538874607514   T   T   T
  0.9147880142098439  0.4239675176207054  0.0699455316114823   T   T   T
  0.1039800000000000  0.8513299999999973  0.0275999999999996   F   F   F
  0.0996754855701891  0.6824617261018967  0.1225451587307011   T   T   T
  0.2615758766078855  0.7636423518921416  0.0651082045744214   T   T   T
  0.4373099999999965  0.8513299999999973  0.0275999999999996   F   F   F
  0.4419421434461274  0.6904201286770109  0.1369565937906269   T   T   T
  0.5925384620864178  0.7636332948567236  0.0648229837397632   T   T   T
  0.7706500000000034  0.8513299999999973  0.0275999999999996   F   F   F
  0.7619973497720268  0.6852281359235572  0.1285331879920241   T   T   T
  0.9154034204830122  0.7571010857529944  0.0697142504058624   T   T   T
  0.5237954675536931  0.0760991120912374  0.2652534251316449   T   T   T
  0.6682445133573444 -0.0084170327654509  0.2585684001805346   T   T   T
  0.4692086789138775  0.0357297763123089  0.1934729612832768   T   T   T
  0.5383264595648111  0.2450233321912512  0.2199174871140449   T   T   T
  0.6178341601137844  0.1235539881695071  0.2073003410997692   T   T   T
  0.6370307694066273  0.1448155923865423  0.3010234853741695   T   T   T
  0.6528849961824778  0.3118075539259488  0.2529129427722941   T   T   T
  0.4789765190463242  0.3818910443447415  0.1931993178311714   T   T   T
  0.5336357790200766  0.5679949036483426  0.2326242176105167   T   T   T
  0.6120437886040712  0.4501690124803991  0.1987602145444699   T   T   T
  0.5641048765576667  0.4104754987696373  0.2722080776214535   T   T   T
  0.6583198099961082  0.6244444068306797  0.2511353578464856   T   T   T
  0.4704583521412010  0.7199793635882960  0.1964463374996848   T   T   T
  0.5148937874876368  0.7324072201125043  0.2723214536429134   T   T   T
  0.6161317474272945  0.7714276092611155  0.2101253820414885   T   T   T
  0.5812044911907797  0.5961285870044329  0.3128395428413347   T   T   T
  0.6329208128441637  0.8002314085478394  0.2955164133173288   T   T   T
  0.7591004955569783  0.1613920255702244  0.3078781811430652   T   T   T
  0.6912818545244596  0.4918297395224426  0.3017598744559947   T   T   T
  0.7210861615478926  0.7166059319630027  0.3210419630562716   T   T   T
  0.4471895335100338  0.8713324389128134  0.2530555155650157   T   T   T
  0.5561921267881395  0.9172709623400178  0.2210175338653211   T   T   T
  0.5618215659456882  0.9331280841086080  0.3064416170462758   T   T   T
  0.7402762575234976 -0.0535493328303031  0.3193383581528801   T   T   T
  0.7979877612152350  0.0424846088426607  0.2463734779034962   T   T   T
  0.6974445770020317  0.3198852824077372  0.1752395731097767   T   T   T
  0.7370050847761929  0.1938081802531693  0.2301660667794809   T   T   T
  0.7328606148658047  0.4953456856792544  0.2232791108032483   T   T   T
  0.7881377681565803  0.6692018761272593  0.2626944893078673   T   T   T
  0.7122459601050015  0.6662440973916194  0.1809107965571037   T   T   T
  0.7326487582775667  0.8323501590004679  0.2406864563899279   T   T   T
  0.8568299402530819  0.2544089414901414  0.2613063460424952   T   T   T
  0.7754009581639644  0.3750577496633486  0.2760066739314942   T   T   T
  0.8309215893781322  0.8752025065575898  0.2903837568559823   T   T   T
  0.7062145375229277 -0.0105404810933130  0.1837539479078732   T   T   T
  0.8613371608086117  0.0879674418487152  0.3132464031867624   T   T   T
 
  0.00000000E+00  0.00000000E+00  0.00000000E+00
  0.00000000E+00  0.00000000E+00  0.00000000E+00
  0.00000000E+00  0.00000000E+00  0.00000000E+00
  0.00000000E+00  0.00000000E+00  0.00000000E+00
  0.00000000E+00  0.00000000E+00  0.00000000E+00
  0.00000000E+00  0.00000000E+00  0.00000000E+00
  0.00000000E+00  0.00000000E+00  0.00000000E+00
  0.00000000E+00  0.00000000E+00  0.00000000E+00
  0.00000000E+00  0.00000000E+00  0.00000000E+00
  0.00000000E+00  0.00000000E+00  0.00000000E+00
  0.00000000E+00  0.00000000E+00  0.00000000E+00
  0.00000000E+00  0.00000000E+00  0.00000000E+00
  0.00000000E+00  0.00000000E+00  0.00000000E+00
  0.00000000E+00  0.00000000E+00  0.00000000E+00
  0.00000000E+00  0.00000000E+00  0.00000000E+00
  0.00000000E+00  0.00000000E+00  0.00000000E+00
  0.00000000E+00  0.00000000E+00  0.00000000E+00
  0.00000000E+00  0.00000000E+00  0.00000000E+00
  0.00000000E+00  0.00000000E+00  0.00000000E+00
  0.00000000E+00  0.00000000E+00  0.00000000E+00
  0.00000000E+00  0.00000000E+00  0.00000000E+00
  0.00000000E+00  0.00000000E+00  0.00000000E+00
  0.00000000E+00  0.00000000E+00  0.00000000E+00
  0.00000000E+00  0.00000000E+00  0.00000000E+00
  0.00000000E+00  0.00000000E+00  0.00000000E+00
  0.00000000E+00  0.00000000E+00  0.00000000E+00
  0.00000000E+00  0.00000000E+00  0.00000000E+00
  0.00000000E+00  0.00000000E+00  0.00000000E+00
  0.00000000E+00  0.00000000E+00  0.00000000E+00
  0.00000000E+00  0.00000000E+00  0.00000000E+00
  0.00000000E+00  0.00000000E+00  0.00000000E+00
  0.00000000E+00  0.00000000E+00  0.00000000E+00
  0.00000000E+00  0.00000000E+00  0.00000000E+00
  0.00000000E+00  0.00000000E+00  0.00000000E+00
  0.00000000E+00  0.00000000E+00  0.00000000E+00
  0.00000000E+00  0.00000000E+00  0.00000000E+00
  0.00000000E+00  0.00000000E+00  0.00000000E+00
  0.00000000E+00  0.00000000E+00  0.00000000E+00
  0.00000000E+00  0.00000000E+00  0.00000000E+00
  0.00000000E+00  0.00000000E+00  0.00000000E+00
  0.00000000E+00  0.00000000E+00  0.00000000E+00
  0.00000000E+00  0.00000000E+00  0.00000000E+00
  0.00000000E+00  0.00000000E+00  0.00000000E+00
  0.00000000E+00  0.00000000E+00  0.00000000E+00
  0.00000000E+00  0.00000000E+00  0.00000000E+00
  0.00000000E+00  0.00000000E+00  0.00000000E+00
  0.00000000E+00  0.00000000E+00  0.00000000E+00
  0.00000000E+00  0.00000000E+00  0.00000000E+00
  0.00000000E+00  0.00000000E+00  0.00000000E+00
  0.00000000E+00  0.00000000E+00  0.00000000E+00
  0.00000000E+00  0.00000000E+00  0.00000000E+00
  0.00000000E+00  0.00000000E+00  0.00000000E+00
  0.00000000E+00  0.00000000E+00  0.00000000E+00
  0.00000000E+00  0.00000000E+00  0.00000000E+00
  0.00000000E+00  0.00000000E+00  0.00000000E+00
  0.00000000E+00  0.00000000E+00  0.00000000E+00
  0.00000000E+00  0.00000000E+00  0.00000000E+00
  0.00000000E+00  0.00000000E+00  0.00000000E+00
  0.00000000E+00  0.00000000E+00  0.00000000E+00
  0.00000000E+00  0.00000000E+00  0.00000000E+00
  0.00000000E+00  0.00000000E+00  0.00000000E+00
  0.00000000E+00  0.00000000E+00  0.00000000E+00
  0.00000000E+00  0.00000000E+00  0.00000000E+00
  0.00000000E+00  0.00000000E+00  0.00000000E+00
  0.00000000E+00  0.00000000E+00  0.00000000E+00
  0.00000000E+00  0.00000000E+00  0.00000000E+00
  0.00000000E+00  0.00000000E+00  0.00000000E+00
  0.00000000E+00  0.00000000E+00  0.00000000E+00
  0.00000000E+00  0.00000000E+00  0.00000000E+00
  0.00000000E+00  0.00000000E+00  0.00000000E+00
  0.00000000E+00  0.00000000E+00  0.00000000E+00
  0.00000000E+00  0.00000000E+00  0.00000000E+00
  0.00000000E+00  0.00000000E+00  0.00000000E+00
  0.00000000E+00  0.00000000E+00  0.00000000E+00
  0.00000000E+00  0.00000000E+00  0.00000000E+00
  0.00000000E+00  0.00000000E+00  0.00000000E+00
  0.00000000E+00  0.00000000E+00  0.00000000E+00
  0.00000000E+00  0.00000000E+00  0.00000000E+00
  0.00000000E+00  0.00000000E+00  0.00000000E+00
  0.00000000E+00  0.00000000E+00  0.00000000E+00
  0.00000000E+00  0.00000000E+00  0.00000000E+00
  0.00000000E+00  0.00000000E+00  0.00000000E+00
  0.00000000E+00  0.00000000E+00  0.00000000E+00
  0.00000000E+00  0.00000000E+00  0.00000000E+00
  0.00000000E+00  0.00000000E+00  0.00000000E+00
  0.00000000E+00  0.00000000E+00  0.00000000E+00
  0.00000000E+00  0.00000000E+00  0.00000000E+00
  0.00000000E+00  0.00000000E+00  0.00000000E+00
  0.00000000E+00  0.00000000E+00  0.00000000E+00
  0.00000000E+00  0.00000000E+00  0.00000000E+00
