Cu  O Ba  C  H                          
   1.00000000000000     
    15.3360000000000003    0.0000000000000000    0.0000000000000000
   -12.7799999999999940   22.1356093207302536    0.0000000000000000
     0.0000000000000000    0.0000000000000000   30.0000000000000000
   Cu   O    Ba   C    H 
   180    36    36     2     1
Selective dynamics
Direct
  0.0028801091832068  0.0390423482359928  0.1385541434008837   T   T   T
  0.1169500000000028  0.0748900000000035  0.0695600000000027   F   F   F
  0.0613999999999990  0.0082200000000014  0.0000000000000000   F   F   F
  0.1717280185112532  0.0391308280204743  0.1385999386537825   T   T   T
  0.2836199999999991  0.0748900000000035  0.0695600000000027   F   F   F
  0.2280599999999993  0.0082200000000014  0.0000000000000000   F   F   F
  0.3390345775016328  0.0403315154078044  0.1393389435615375   T   T   T
  0.4502799999999993  0.0748900000000035  0.0695600000000027   F   F   F
  0.3947300000000027  0.0082200000000014  0.0000000000000000   F   F   F
  0.5056736899857190  0.0406837862030962  0.1391472698238310   T   T   T
  0.6169500000000028  0.0748900000000035  0.0695600000000027   F   F   F
  0.5613999999999990  0.0082200000000014  0.0000000000000000   F   F   F
  0.6720097576809290  0.0408441206162160  0.1393343225433639   T   T   T
  0.7836199999999991  0.0748900000000035  0.0695600000000027   F   F   F
  0.7280599999999993  0.0082200000000014  0.0000000000000000   F   F   F
  0.8384791117398714  0.0407364159184793  0.1390536679907270   T   T   T
  0.9502799999999993  0.0748900000000035  0.0695600000000027   F   F   F
  0.8947300000000027  0.0082200000000014  0.0000000000000000   F   F   F
  0.0030957163796833  0.1396137545659344  0.1402552677719598   T   T   T
  0.1169500000000028  0.1748899999999978  0.0695600000000027   F   F   F
  0.0613999999999990  0.1082200000000029  0.0000000000000000   F   F   F
  0.1677887384266935  0.1350830655870835  0.1404628409118039   T   T   T
  0.2836199999999991  0.1748899999999978  0.0695600000000027   F   F   F
  0.2280599999999993  0.1082200000000029  0.0000000000000000   F   F   F
  0.3393820619950024  0.1387697606937147  0.1380986707521601   T   T   T
  0.4502799999999993  0.1748899999999978  0.0695600000000027   F   F   F
  0.3947300000000027  0.1082200000000029  0.0000000000000000   F   F   F
  0.5043390747154612  0.1391353229160465  0.1391869364141315   T   T   T
  0.6169500000000028  0.1748899999999978  0.0695600000000027   F   F   F
  0.5613999999999990  0.1082200000000029  0.0000000000000000   F   F   F
  0.6712187649948340  0.1394694148640034  0.1392182523049172   T   T   T
  0.7836199999999991  0.1748899999999978  0.0695600000000027   F   F   F
  0.7280599999999993  0.1082200000000029  0.0000000000000000   F   F   F
  0.8371320285984950  0.1395066988131626  0.1389950214699482   T   T   T
  0.9502799999999993  0.1748899999999978  0.0695600000000027   F   F   F
  0.8947300000000027  0.1082200000000029  0.0000000000000000   F   F   F
  0.0008958258112680  0.2389525987608377  0.1379599708198543   T   T   T
  0.1169500000000028  0.2748899999999992  0.0695600000000027   F   F   F
  0.0613999999999990  0.2082199999999972  0.0000000000000000   F   F   F
  0.1653234246176723  0.2402234474296737  0.1387868905614218   T   T   T
  0.2836199999999991  0.2748899999999992  0.0695600000000027   F   F   F
  0.2280599999999993  0.2082199999999972  0.0000000000000000   F   F   F
  0.3412448112020612  0.2394609195021910  0.1411251379767592   T   T   T
  0.4502799999999993  0.2748899999999992  0.0695600000000027   F   F   F
  0.3947300000000027  0.2082199999999972  0.0000000000000000   F   F   F
  0.5055457322623568  0.2386942347315282  0.1379715844820440   T   T   T
  0.6169500000000028  0.2748899999999992  0.0695600000000027   F   F   F
  0.5613999999999990  0.2082199999999972  0.0000000000000000   F   F   F
  0.6688460289419448  0.2368769641981707  0.1383369513109217   T   T   T
  0.7836199999999991  0.2748899999999992  0.0695600000000027   F   F   F
  0.7280599999999993  0.2082199999999972  0.0000000000000000   F   F   F
  0.8354780563978017  0.2383044080406296  0.1385905828150290   T   T   T
  0.9502799999999993  0.2748899999999992  0.0695600000000027   F   F   F
  0.8947300000000027  0.2082199999999972  0.0000000000000000   F   F   F
 -0.0000395987769837  0.3357990464890684  0.1401807677284211   T   T   T
  0.1169500000000028  0.3748900000000006  0.0695600000000027   F   F   F
  0.0613999999999990  0.3082199999999986  0.0000000000000000   F   F   F
  0.1690193372964321  0.3393951794662550  0.1394714804905620   T   T   T
  0.2836199999999991  0.3748900000000006  0.0695600000000027   F   F   F
  0.2280599999999993  0.3082199999999986  0.0000000000000000   F   F   F
  0.3371066578346918  0.3397739425408494  0.1383128140503903   T   T   T
  0.4502799999999993  0.3748900000000006  0.0695600000000027   F   F   F
  0.3947300000000027  0.3082199999999986  0.0000000000000000   F   F   F
  0.5030311136418607  0.3365449258843415  0.1397913061517247   T   T   T
  0.6169500000000028  0.3748900000000006  0.0695600000000027   F   F   F
  0.5613999999999990  0.3082199999999986  0.0000000000000000   F   F   F
  0.6697291593250233  0.3371445131226830  0.1399809988802450   T   T   T
  0.7836199999999991  0.3748900000000006  0.0695600000000027   F   F   F
  0.7280599999999993  0.3082199999999986  0.0000000000000000   F   F   F
  0.8348506442889977  0.3372550220235779  0.1396183398451928   T   T   T
  0.9502799999999993  0.3748900000000006  0.0695600000000027   F   F   F
  0.8947300000000027  0.3082199999999986  0.0000000000000000   F   F   F
  0.0075862357407875  0.4436285355908104  0.1398384767539650   T   T   T
  0.1169500000000028  0.4748900000000020  0.0695600000000027   F   F   F
  0.0613999999999990  0.4082200000000000  0.0000000000000000   F   F   F
  0.1735914165463569  0.4439547147915796  0.1398821329951583   T   T   T
  0.2836199999999991  0.4748900000000020  0.0695600000000027   F   F   F
  0.2280599999999993  0.4082200000000000  0.0000000000000000   F   F   F
  0.3389482771853903  0.4416453255458631  0.1388228546985336   T   T   T
  0.4502799999999993  0.4748900000000020  0.0695600000000027   F   F   F
  0.3947300000000027  0.4082200000000000  0.0000000000000000   F   F   F
  0.5076029402476158  0.4438579634996412  0.1399979544185280   T   T   T
  0.6169500000000028  0.4748900000000020  0.0695600000000027   F   F   F
  0.5613999999999990  0.4082200000000000  0.0000000000000000   F   F   F
  0.6742367539258288  0.4438277840503682  0.1401265763533870   T   T   T
  0.7836199999999991  0.4748900000000020  0.0695600000000027   F   F   F
  0.7280599999999993  0.4082200000000000  0.0000000000000000   F   F   F
  0.8386415681865107  0.4410887729310760  0.1386782198949473   T   T   T
  0.9502799999999993  0.4748900000000020  0.0695600000000027   F   F   F
  0.8947300000000027  0.4082200000000000  0.0000000000000000   F   F   F
  0.0089804285373164  0.5430639344669765  0.1398360291477612   T   T   T
  0.1169500000000028  0.5748900000000035  0.0695600000000027   F   F   F
  0.0613999999999990  0.5082200000000014  0.0000000000000000   F   F   F
  0.1742838481859310  0.5441539275586912  0.1339958777291854   T   T   T
  0.2836199999999991  0.5748900000000035  0.0695600000000027   F   F   F
  0.2280599999999993  0.5082200000000014  0.0000000000000000   F   F   F
  0.3380000056418724  0.5430132850517628  0.1398776204879970   T   T   T
  0.4502799999999993  0.5748900000000035  0.0695600000000027   F   F   F
  0.3947300000000027  0.5082200000000014  0.0000000000000000   F   F   F
  0.5089715494328435  0.5430856618720284  0.1399953786520946   T   T   T
  0.6169500000000028  0.5748900000000035  0.0695600000000027   F   F   F
  0.5613999999999990  0.5082200000000014  0.0000000000000000   F   F   F
  0.6745361609032411  0.5440889072008014  0.1339222844513465   T   T   T
  0.7836199999999991  0.5748900000000035  0.0695600000000027   F   F   F
  0.7280599999999993  0.5082200000000014  0.0000000000000000   F   F   F
  0.8384767583851624  0.5429591865990243  0.1398084339775435   T   T   T
  0.9502799999999993  0.5748900000000035  0.0695600000000027   F   F   F
  0.8947300000000027  0.5082200000000014  0.0000000000000000   F   F   F
  0.0109900775096073  0.6476589575950340  0.1449467578474898   T   T   T
  0.1169500000000028  0.6748899999999978  0.0695600000000027   F   F   F
  0.0613999999999990  0.6082200000000029  0.0000000000000000   F   F   F
  0.1755184769150052  0.6446553412122209  0.1398005965880363   T   T   T
  0.2836199999999991  0.6748899999999978  0.0695600000000027   F   F   F
  0.2280599999999993  0.6082200000000029  0.0000000000000000   F   F   F
  0.3411552175856535  0.6446254158585486  0.1392293341611912   T   T   T
  0.4502799999999993  0.6748899999999978  0.0695600000000027   F   F   F
  0.3947300000000027  0.6082200000000029  0.0000000000000000   F   F   F
  0.5107148055416418  0.6476673656912012  0.1447023775215114   T   T   T
  0.6169500000000028  0.6748899999999978  0.0695600000000027   F   F   F
  0.5613999999999990  0.6082200000000029  0.0000000000000000   F   F   F
  0.6754256183009417  0.6446202426208776  0.1398458299564926   T   T   T
  0.7836199999999991  0.6748899999999978  0.0695600000000027   F   F   F
  0.7280599999999993  0.6082200000000029  0.0000000000000000   F   F   F
  0.8414615666847617  0.6446493789066999  0.1392857883471472   T   T   T
  0.9502799999999993  0.6748899999999978  0.0695600000000027   F   F   F
  0.8947300000000027  0.6082200000000029  0.0000000000000000   F   F   F
  0.0101923376652712  0.7459418367862826  0.1347649275322974   T   T   T
  0.1169500000000028  0.7748899999999992  0.0695600000000027   F   F   F
  0.0613999999999990  0.7082199999999972  0.0000000000000000   F   F   F
  0.1753434419409282  0.7460098851250998  0.1344981738657535   T   T   T
  0.2836199999999991  0.7748899999999992  0.0695600000000027   F   F   F
  0.2280599999999993  0.7082199999999972  0.0000000000000000   F   F   F
  0.3417379383766113  0.7444320784957750  0.1399422070279308   T   T   T
  0.4502799999999993  0.7748899999999992  0.0695600000000027   F   F   F
  0.3947300000000027  0.7082199999999972  0.0000000000000000   F   F   F
  0.5103395758251924  0.7460483131924078  0.1347492700592259   T   T   T
  0.6169500000000028  0.7748899999999992  0.0695600000000027   F   F   F
  0.5613999999999990  0.7082199999999972  0.0000000000000000   F   F   F
  0.6751259826760437  0.7459957238733526  0.1345158982430460   T   T   T
  0.7836199999999991  0.7748899999999992  0.0695600000000027   F   F   F
  0.7280599999999993  0.7082199999999972  0.0000000000000000   F   F   F
  0.8415372415102288  0.7444884851077386  0.1396552801671449   T   T   T
  0.9502799999999993  0.7748899999999992  0.0695600000000027   F   F   F
  0.8947300000000027  0.7082199999999972  0.0000000000000000   F   F   F
  0.0065782841011236  0.8427906043575011  0.1400847283357774   T   T   T
  0.1169500000000028  0.8748900000000006  0.0695600000000027   F   F   F
  0.0613999999999990  0.8082199999999986  0.0000000000000000   F   F   F
  0.1740841154841674  0.8434345320037557  0.1404173896982905   T   T   T
  0.2836199999999991  0.8748900000000006  0.0695600000000027   F   F   F
  0.2280599999999993  0.8082199999999986  0.0000000000000000   F   F   F
  0.3403997314323677  0.8428774317039602  0.1401484255287587   T   T   T
  0.4502799999999993  0.8748900000000006  0.0695600000000027   F   F   F
  0.3947300000000027  0.8082199999999986  0.0000000000000000   F   F   F
  0.5069658188488882  0.8430605092440748  0.1400980670420743   T   T   T
  0.6169500000000028  0.8748900000000006  0.0695600000000027   F   F   F
  0.5613999999999990  0.8082199999999986  0.0000000000000000   F   F   F
  0.6737387717736398  0.8435691091449625  0.1403827125684619   T   T   T
  0.7836199999999991  0.8748900000000006  0.0695600000000027   F   F   F
  0.7280599999999993  0.8082199999999986  0.0000000000000000   F   F   F
  0.8400117563405355  0.8428754675813557  0.1401715451798406   T   T   T
  0.9502799999999993  0.8748900000000006  0.0695600000000027   F   F   F
  0.8947300000000027  0.8082199999999986  0.0000000000000000   F   F   F
  0.0052569344055318  0.9411094764455548  0.1394071606044249   T   T   T
  0.1169500000000028  0.9748900000000020  0.0695600000000027   F   F   F
  0.0613999999999990  0.9082200000000000  0.0000000000000000   F   F   F
  0.1722567991319739  0.9411126389929739  0.1395117856372197   T   T   T
  0.2836199999999991  0.9748900000000020  0.0695600000000027   F   F   F
  0.2280599999999993  0.9082200000000000  0.0000000000000000   F   F   F
  0.3393983820926380  0.9414714177651800  0.1394973062764213   T   T   T
  0.4502799999999993  0.9748900000000020  0.0695600000000027   F   F   F
  0.3947300000000027  0.9082200000000000  0.0000000000000000   F   F   F
  0.5059870636985112  0.9415877050276207  0.1393919189161682   T   T   T
  0.6169500000000028  0.9748900000000020  0.0695600000000027   F   F   F
  0.5613999999999990  0.9082200000000000  0.0000000000000000   F   F   F
  0.6723532475522263  0.9418908712616633  0.1394954248969079   T   T   T
  0.7836199999999991  0.9748900000000020  0.0695600000000027   F   F   F
  0.7280599999999993  0.9082200000000000  0.0000000000000000   F   F   F
  0.8383222407141327  0.9410855713646377  0.1395112226718300   T   T   T
  0.9502799999999993  0.9748900000000020  0.0695600000000027   F   F   F
  0.8947300000000027  0.9082200000000000  0.0000000000000000   F   F   F
  0.2820178234197617  0.3738286858626446  0.1852230584889488   T   T   T
  0.5547750959621199  0.4005916672491602  0.1841287026829538   T   T   T
  0.7831868163445821  0.3745862713115947  0.1855684199260720   T   T   T
  0.0542901658651570  0.4007003886755715  0.1837785081690751   T   T   T
  0.1093606979661526  0.4679879302058608  0.2956905299224831   T   T   T
  0.2704121575432969  0.5082632281064438  0.1976529551822044   T   T   T
  0.3575695325013607  0.4660092009005999  0.2973440959350154   T   T   T
  0.5131836055733298  0.5061197347379925  0.1975120387160071   T   T   T
  0.6091150270940546  0.4675905403110018  0.2956369565770968   T   T   T
  0.7700254389644474  0.5070235441054952  0.1972433475387989   T   T   T
  0.8577572080098382  0.4660440358497007  0.2973590032935599   T   T   T
  0.0146961693750291  0.5066215574295012  0.1973844644942766   T   T   T
  0.1052986833667620  0.6110896613204350  0.3061053880884935   T   T   T
  0.2834838514095775  0.6772272827004114  0.1949257492921275   T   T   T
  0.1954071024019340  0.5748283352349237  0.4078044237707356   T   T   T
  0.3519557808460577  0.6115558753465102  0.3048323600956827   T   T   T
  0.5322728454788827  0.6747202547802901  0.2104507648983668   T   T   T
  0.4458428958314492  0.5754669209337876  0.4063763795257626   T   T   T
  0.6058747910543362  0.6116539213669961  0.3057224706687520   T   T   T
  0.7816195756559691  0.6756982509948879  0.1949763666463401   T   T   T
  0.6951412870693641  0.5740861636486964  0.4072043404172803   T   T   T
  0.8514016087015021  0.6119251157629921  0.3041556727368195   T   T   T
  0.0343659348699163  0.6742681298207873  0.2105772603255903   T   T   T
  0.9464013767965359  0.5757338792867099  0.4062813544232057   T   T   T
  0.1181626214549056  0.7799537451819121  0.3045861246861741   T   T   T
  0.1931412839999122  0.7224758701379664  0.4139975900392089   T   T   T
  0.3706013425866328  0.7781780417593577  0.3051801216113599   T   T   T
  0.4362899503374282  0.7163893878951954  0.4196258091924649   T   T   T
  0.6198330585366170  0.7806972232033081  0.3051806411741564   T   T   T
  0.6898477605665632  0.7185479335399516  0.4161108471220913   T   T   T
  0.8708144872943786  0.7792250261829067  0.3048057926887545   T   T   T
  0.9355085739651373  0.7151037119027071  0.4197541888536472   T   T   T
  0.1924050042022449  0.8787782182671401  0.4061084624390660   T   T   T
  0.4408698409598222  0.8779645154423852  0.4095773014576009   T   T   T
  0.6922269431066629  0.8787198854683576  0.4066772303350882   T   T   T
  0.9407542056642727  0.8784898682808487  0.4070087486522608   T   T   T
  0.2683803520778204  0.5089578241161286  0.3461441644736625   T   T   T
  0.1874468256456047  0.4091538587222254  0.2418846829399505   T   T   T
  0.5196320302626538  0.5087247348972885  0.3462596108478863   T   T   T
  0.4334793334226921  0.4073912642471453  0.2420477734523611   T   T   T
  0.7681279291821632  0.5091469535448745  0.3458836938127046   T   T   T
  0.6867409379164005  0.4080346507077421  0.2421580519963658   T   T   T
  0.0195616599765292  0.5086398302497703  0.3466242617672876   T   T   T
  0.9348530100928863  0.4083558709586778  0.2423194485433915   T   T   T
  0.0995808434907081  0.6105992211404604  0.4514501480073707   T   T   T
  0.2780371138743772  0.6692032049646212  0.3460157754118578   T   T   T
  0.1924413965243504  0.5678336344692124  0.2375445312293432   T   T   T
  0.3478116535431577  0.6070652902989960  0.4534856512370456   T   T   T
  0.5269806935827475  0.6691571047486558  0.3438385807381611   T   T   T
  0.4422535897004590  0.5664855515681388  0.2405955193855079   T   T   T
  0.5985010424657874  0.6086489794413494  0.4519658350489671   T   T   T
  0.7777995214355812  0.6695651431757469  0.3460222546045557   T   T   T
  0.6914414014940947  0.5664888016618683  0.2372426021609223   T   T   T
  0.8470207482712191  0.6064579559323242  0.4533980492469705   T   T   T
  0.0258504188433428  0.6687450604168268  0.3433309547591448   T   T   T
  0.9419810481297165  0.5659134946762334  0.2404253569855716   T   T   T
  0.1101461847950761  0.7758217515317543  0.4513611569628008   T   T   T
  0.2922708391347601  0.8344817055824058  0.3396709544927797   T   T   T
  0.2122438721942362  0.7404999831934697  0.2333361953999983   T   T   T
  0.3611936071575714  0.7753429765190770  0.4544325474077722   T   T   T
  0.5491998341335995  0.8429279709068654  0.3333101461732538   T   T   T
  0.4584894258773826  0.7374902962503956  0.2339704158752014   T   T   T
  0.6111753406656439  0.7754015283816336  0.4514546725181064   T   T   T
  0.7972085041832410  0.8397703092668712  0.3357551858864454   T   T   T
  0.7105875471592871  0.7385304905178260  0.2333496550479914   T   T   T
  0.8612546996054030  0.7756112789799046  0.4522902340940615   T   T   T
  0.0509878860683678  0.8446137106007690  0.3304145091528953   T   T   T
  0.9566270578100716  0.7349782562915926  0.2338006085823397   T   T   T
  0.1187168228842618  0.9415260489121974  0.4339533600772745   T   T   T
  0.3691058422791398  0.9422758948948530  0.4359553854354801   T   T   T
  0.6185897000248468  0.9409077935554521  0.4364969914459071   T   T   T
  0.8688071694506853  0.9417472955435243  0.4358088060034842   T   T   T
  0.2358378116697668  0.2098547876441436  0.1838951827377938   T   T   T
  0.1401546397013078  0.1822227502545526  0.1940312301988168   T   T   T
  0.0893427319342818  0.1669401833307712  0.2223407865840203   T   T   T
 
  0.00000000E+00  0.00000000E+00  0.00000000E+00
  0.00000000E+00  0.00000000E+00  0.00000000E+00
  0.00000000E+00  0.00000000E+00  0.00000000E+00
  0.00000000E+00  0.00000000E+00  0.00000000E+00
  0.00000000E+00  0.00000000E+00  0.00000000E+00
  0.00000000E+00  0.00000000E+00  0.00000000E+00
  0.00000000E+00  0.00000000E+00  0.00000000E+00
  0.00000000E+00  0.00000000E+00  0.00000000E+00
  0.00000000E+00  0.00000000E+00  0.00000000E+00
  0.00000000E+00  0.00000000E+00  0.00000000E+00
  0.00000000E+00  0.00000000E+00  0.00000000E+00
  0.00000000E+00  0.00000000E+00  0.00000000E+00
  0.00000000E+00  0.00000000E+00  0.00000000E+00
  0.00000000E+00  0.00000000E+00  0.00000000E+00
  0.00000000E+00  0.00000000E+00  0.00000000E+00
  0.00000000E+00  0.00000000E+00  0.00000000E+00
  0.00000000E+00  0.00000000E+00  0.00000000E+00
  0.00000000E+00  0.00000000E+00  0.00000000E+00
  0.00000000E+00  0.00000000E+00  0.00000000E+00
  0.00000000E+00  0.00000000E+00  0.00000000E+00
  0.00000000E+00  0.00000000E+00  0.00000000E+00
  0.00000000E+00  0.00000000E+00  0.00000000E+00
  0.00000000E+00  0.00000000E+00  0.00000000E+00
  0.00000000E+00  0.00000000E+00  0.00000000E+00
  0.00000000E+00  0.00000000E+00  0.00000000E+00
  0.00000000E+00  0.00000000E+00  0.00000000E+00
  0.00000000E+00  0.00000000E+00  0.00000000E+00
  0.00000000E+00  0.00000000E+00  0.00000000E+00
  0.00000000E+00  0.00000000E+00  0.00000000E+00
  0.00000000E+00  0.00000000E+00  0.00000000E+00
  0.00000000E+00  0.00000000E+00  0.00000000E+00
  0.00000000E+00  0.00000000E+00  0.00000000E+00
  0.00000000E+00  0.00000000E+00  0.00000000E+00
  0.00000000E+00  0.00000000E+00  0.00000000E+00
  0.00000000E+00  0.00000000E+00  0.00000000E+00
  0.00000000E+00  0.00000000E+00  0.00000000E+00
  0.00000000E+00  0.00000000E+00  0.00000000E+00
  0.00000000E+00  0.00000000E+00  0.00000000E+00
  0.00000000E+00  0.00000000E+00  0.00000000E+00
  0.00000000E+00  0.00000000E+00  0.00000000E+00
  0.00000000E+00  0.00000000E+00  0.00000000E+00
  0.00000000E+00  0.00000000E+00  0.00000000E+00
  0.00000000E+00  0.00000000E+00  0.00000000E+00
  0.00000000E+00  0.00000000E+00  0.00000000E+00
  0.00000000E+00  0.00000000E+00  0.00000000E+00
  0.00000000E+00  0.00000000E+00  0.00000000E+00
  0.00000000E+00  0.00000000E+00  0.00000000E+00
  0.00000000E+00  0.00000000E+00  0.00000000E+00
  0.00000000E+00  0.00000000E+00  0.00000000E+00
  0.00000000E+00  0.00000000E+00  0.00000000E+00
  0.00000000E+00  0.00000000E+00  0.00000000E+00
  0.00000000E+00  0.00000000E+00  0.00000000E+00
  0.00000000E+00  0.00000000E+00  0.00000000E+00
  0.00000000E+00  0.00000000E+00  0.00000000E+00
  0.00000000E+00  0.00000000E+00  0.00000000E+00
  0.00000000E+00  0.00000000E+00  0.00000000E+00
  0.00000000E+00  0.00000000E+00  0.00000000E+00
  0.00000000E+00  0.00000000E+00  0.00000000E+00
  0.00000000E+00  0.00000000E+00  0.00000000E+00
  0.00000000E+00  0.00000000E+00  0.00000000E+00
  0.00000000E+00  0.00000000E+00  0.00000000E+00
  0.00000000E+00  0.00000000E+00  0.00000000E+00
  0.00000000E+00  0.00000000E+00  0.00000000E+00
  0.00000000E+00  0.00000000E+00  0.00000000E+00
  0.00000000E+00  0.00000000E+00  0.00000000E+00
  0.00000000E+00  0.00000000E+00  0.00000000E+00
  0.00000000E+00  0.00000000E+00  0.00000000E+00
  0.00000000E+00  0.00000000E+00  0.00000000E+00
  0.00000000E+00  0.00000000E+00  0.00000000E+00
  0.00000000E+00  0.00000000E+00  0.00000000E+00
  0.00000000E+00  0.00000000E+00  0.00000000E+00
  0.00000000E+00  0.00000000E+00  0.00000000E+00
  0.00000000E+00  0.00000000E+00  0.00000000E+00
  0.00000000E+00  0.00000000E+00  0.00000000E+00
  0.00000000E+00  0.00000000E+00  0.00000000E+00
  0.00000000E+00  0.00000000E+00  0.00000000E+00
  0.00000000E+00  0.00000000E+00  0.00000000E+00
  0.00000000E+00  0.00000000E+00  0.00000000E+00
  0.00000000E+00  0.00000000E+00  0.00000000E+00
  0.00000000E+00  0.00000000E+00  0.00000000E+00
  0.00000000E+00  0.00000000E+00  0.00000000E+00
  0.00000000E+00  0.00000000E+00  0.00000000E+00
  0.00000000E+00  0.00000000E+00  0.00000000E+00
  0.00000000E+00  0.00000000E+00  0.00000000E+00
  0.00000000E+00  0.00000000E+00  0.00000000E+00
  0.00000000E+00  0.00000000E+00  0.00000000E+00
  0.00000000E+00  0.00000000E+00  0.00000000E+00
  0.00000000E+00  0.00000000E+00  0.00000000E+00
  0.00000000E+00  0.00000000E+00  0.00000000E+00
  0.00000000E+00  0.00000000E+00  0.00000000E+00
  0.00000000E+00  0.00000000E+00  0.00000000E+00
  0.00000000E+00  0.00000000E+00  0.00000000E+00
  0.00000000E+00  0.00000000E+00  0.00000000E+00
  0.00000000E+00  0.00000000E+00  0.00000000E+00
  0.00000000E+00  0.00000000E+00  0.00000000E+00
  0.00000000E+00  0.00000000E+00  0.00000000E+00
  0.00000000E+00  0.00000000E+00  0.00000000E+00
  0.00000000E+00  0.00000000E+00  0.00000000E+00
  0.00000000E+00  0.00000000E+00  0.00000000E+00
  0.00000000E+00  0.00000000E+00  0.00000000E+00
  0.00000000E+00  0.00000000E+00  0.00000000E+00
  0.00000000E+00  0.00000000E+00  0.00000000E+00
  0.00000000E+00  0.00000000E+00  0.00000000E+00
  0.00000000E+00  0.00000000E+00  0.00000000E+00
  0.00000000E+00  0.00000000E+00  0.00000000E+00
  0.00000000E+00  0.00000000E+00  0.00000000E+00
  0.00000000E+00  0.00000000E+00  0.00000000E+00
  0.00000000E+00  0.00000000E+00  0.00000000E+00
  0.00000000E+00  0.00000000E+00  0.00000000E+00
  0.00000000E+00  0.00000000E+00  0.00000000E+00
  0.00000000E+00  0.00000000E+00  0.00000000E+00
  0.00000000E+00  0.00000000E+00  0.00000000E+00
  0.00000000E+00  0.00000000E+00  0.00000000E+00
  0.00000000E+00  0.00000000E+00  0.00000000E+00
  0.00000000E+00  0.00000000E+00  0.00000000E+00
  0.00000000E+00  0.00000000E+00  0.00000000E+00
  0.00000000E+00  0.00000000E+00  0.00000000E+00
  0.00000000E+00  0.00000000E+00  0.00000000E+00
  0.00000000E+00  0.00000000E+00  0.00000000E+00
  0.00000000E+00  0.00000000E+00  0.00000000E+00
  0.00000000E+00  0.00000000E+00  0.00000000E+00
  0.00000000E+00  0.00000000E+00  0.00000000E+00
  0.00000000E+00  0.00000000E+00  0.00000000E+00
  0.00000000E+00  0.00000000E+00  0.00000000E+00
  0.00000000E+00  0.00000000E+00  0.00000000E+00
  0.00000000E+00  0.00000000E+00  0.00000000E+00
  0.00000000E+00  0.00000000E+00  0.00000000E+00
  0.00000000E+00  0.00000000E+00  0.00000000E+00
  0.00000000E+00  0.00000000E+00  0.00000000E+00
  0.00000000E+00  0.00000000E+00  0.00000000E+00
  0.00000000E+00  0.00000000E+00  0.00000000E+00
  0.00000000E+00  0.00000000E+00  0.00000000E+00
  0.00000000E+00  0.00000000E+00  0.00000000E+00
  0.00000000E+00  0.00000000E+00  0.00000000E+00
  0.00000000E+00  0.00000000E+00  0.00000000E+00
  0.00000000E+00  0.00000000E+00  0.00000000E+00
  0.00000000E+00  0.00000000E+00  0.00000000E+00
  0.00000000E+00  0.00000000E+00  0.00000000E+00
  0.00000000E+00  0.00000000E+00  0.00000000E+00
  0.00000000E+00  0.00000000E+00  0.00000000E+00
  0.00000000E+00  0.00000000E+00  0.00000000E+00
  0.00000000E+00  0.00000000E+00  0.00000000E+00
  0.00000000E+00  0.00000000E+00  0.00000000E+00
  0.00000000E+00  0.00000000E+00  0.00000000E+00
  0.00000000E+00  0.00000000E+00  0.00000000E+00
  0.00000000E+00  0.00000000E+00  0.00000000E+00
  0.00000000E+00  0.00000000E+00  0.00000000E+00
  0.00000000E+00  0.00000000E+00  0.00000000E+00
  0.00000000E+00  0.00000000E+00  0.00000000E+00
  0.00000000E+00  0.00000000E+00  0.00000000E+00
  0.00000000E+00  0.00000000E+00  0.00000000E+00
  0.00000000E+00  0.00000000E+00  0.00000000E+00
  0.00000000E+00  0.00000000E+00  0.00000000E+00
  0.00000000E+00  0.00000000E+00  0.00000000E+00
  0.00000000E+00  0.00000000E+00  0.00000000E+00
  0.00000000E+00  0.00000000E+00  0.00000000E+00
  0.00000000E+00  0.00000000E+00  0.00000000E+00
  0.00000000E+00  0.00000000E+00  0.00000000E+00
  0.00000000E+00  0.00000000E+00  0.00000000E+00
  0.00000000E+00  0.00000000E+00  0.00000000E+00
  0.00000000E+00  0.00000000E+00  0.00000000E+00
  0.00000000E+00  0.00000000E+00  0.00000000E+00
  0.00000000E+00  0.00000000E+00  0.00000000E+00
  0.00000000E+00  0.00000000E+00  0.00000000E+00
  0.00000000E+00  0.00000000E+00  0.00000000E+00
  0.00000000E+00  0.00000000E+00  0.00000000E+00
  0.00000000E+00  0.00000000E+00  0.00000000E+00
  0.00000000E+00  0.00000000E+00  0.00000000E+00
  0.00000000E+00  0.00000000E+00  0.00000000E+00
  0.00000000E+00  0.00000000E+00  0.00000000E+00
  0.00000000E+00  0.00000000E+00  0.00000000E+00
  0.00000000E+00  0.00000000E+00  0.00000000E+00
  0.00000000E+00  0.00000000E+00  0.00000000E+00
  0.00000000E+00  0.00000000E+00  0.00000000E+00
  0.00000000E+00  0.00000000E+00  0.00000000E+00
  0.00000000E+00  0.00000000E+00  0.00000000E+00
  0.00000000E+00  0.00000000E+00  0.00000000E+00
  0.00000000E+00  0.00000000E+00  0.00000000E+00
  0.00000000E+00  0.00000000E+00  0.00000000E+00
  0.00000000E+00  0.00000000E+00  0.00000000E+00
  0.00000000E+00  0.00000000E+00  0.00000000E+00
  0.00000000E+00  0.00000000E+00  0.00000000E+00
  0.00000000E+00  0.00000000E+00  0.00000000E+00
  0.00000000E+00  0.00000000E+00  0.00000000E+00
  0.00000000E+00  0.00000000E+00  0.00000000E+00
  0.00000000E+00  0.00000000E+00  0.00000000E+00
  0.00000000E+00  0.00000000E+00  0.00000000E+00
  0.00000000E+00  0.00000000E+00  0.00000000E+00
  0.00000000E+00  0.00000000E+00  0.00000000E+00
  0.00000000E+00  0.00000000E+00  0.00000000E+00
  0.00000000E+00  0.00000000E+00  0.00000000E+00
  0.00000000E+00  0.00000000E+00  0.00000000E+00
  0.00000000E+00  0.00000000E+00  0.00000000E+00
  0.00000000E+00  0.00000000E+00  0.00000000E+00
  0.00000000E+00  0.00000000E+00  0.00000000E+00
  0.00000000E+00  0.00000000E+00  0.00000000E+00
  0.00000000E+00  0.00000000E+00  0.00000000E+00
  0.00000000E+00  0.00000000E+00  0.00000000E+00
  0.00000000E+00  0.00000000E+00  0.00000000E+00
  0.00000000E+00  0.00000000E+00  0.00000000E+00
  0.00000000E+00  0.00000000E+00  0.00000000E+00
  0.00000000E+00  0.00000000E+00  0.00000000E+00
  0.00000000E+00  0.00000000E+00  0.00000000E+00
  0.00000000E+00  0.00000000E+00  0.00000000E+00
  0.00000000E+00  0.00000000E+00  0.00000000E+00
  0.00000000E+00  0.00000000E+00  0.00000000E+00
  0.00000000E+00  0.00000000E+00  0.00000000E+00
  0.00000000E+00  0.00000000E+00  0.00000000E+00
  0.00000000E+00  0.00000000E+00  0.00000000E+00
  0.00000000E+00  0.00000000E+00  0.00000000E+00
  0.00000000E+00  0.00000000E+00  0.00000000E+00
  0.00000000E+00  0.00000000E+00  0.00000000E+00
  0.00000000E+00  0.00000000E+00  0.00000000E+00
  0.00000000E+00  0.00000000E+00  0.00000000E+00
  0.00000000E+00  0.00000000E+00  0.00000000E+00
  0.00000000E+00  0.00000000E+00  0.00000000E+00
  0.00000000E+00  0.00000000E+00  0.00000000E+00
  0.00000000E+00  0.00000000E+00  0.00000000E+00
  0.00000000E+00  0.00000000E+00  0.00000000E+00
  0.00000000E+00  0.00000000E+00  0.00000000E+00
  0.00000000E+00  0.00000000E+00  0.00000000E+00
  0.00000000E+00  0.00000000E+00  0.00000000E+00
  0.00000000E+00  0.00000000E+00  0.00000000E+00
  0.00000000E+00  0.00000000E+00  0.00000000E+00
  0.00000000E+00  0.00000000E+00  0.00000000E+00