Cu  O Ba  C                             
   1.00000000000000     
    15.3360004424999996    0.0000000000000000    0.0000000000000000
   -12.7799997330000004   22.1356088582000012    0.0000000000000000
     0.0000000000000000    0.0000000000000000   30.0000000000000000
   Cu   O    Ba   C 
   180    38    36     2
Selective dynamics
Direct
  0.0045308493950272  0.0400078760782453  0.1391733593746102   T   T   T
  0.1169499979978781  0.0748900030001138  0.0695599989999991   F   F   F
  0.0614000000017896  0.0082199999993477  0.0000000000000000   F   F   F
  0.1705585199275412  0.0395811692301223  0.1391049561318526   T   T   T
  0.2836200000028697  0.0748900030001138  0.0695599989999991   F   F   F
  0.2280600070018508  0.0082199999993477  0.0000000000000000   F   F   F
  0.3383176534833495  0.0399352507516884  0.1391243265879115   T   T   T
  0.4502800110000607  0.0748900030001138  0.0695599989999991   F   F   F
  0.3947300019971891  0.0082199999993477  0.0000000000000000   F   F   F
  0.5051715230305903  0.0404792336030873  0.1390618813629468   T   T   T
  0.6169499750029672  0.0748900030001138  0.0695599989999991   F   F   F
  0.5613999960013984  0.0082199999993477  0.0000000000000000   F   F   F
  0.6716683785708261  0.0403534773389161  0.1392832198242659   T   T   T
  0.7836199999996083  0.0748900030001138  0.0695599989999991   F   F   F
  0.7280600069985965  0.0082199999993477  0.0000000000000000   F   F   F
  0.8377010651495271  0.0399967115613487  0.1391481631519285   T   T   T
  0.9502800110033220  0.0748900030001138  0.0695599989999991   F   F   F
  0.8947299719991619  0.0082199999993477  0.0000000000000000   F   F   F
  0.0015381137639814  0.1381134947329681  0.1390052097617126   T   T   T
  0.1169499979989439  0.1748899969998305  0.0695599989999991   F   F   F
  0.0613999999979882  0.1082200040010477  0.0000000000000000   F   F   F
  0.1680395356666265  0.1367199241040526  0.1391823693460348   T   T   T
  0.2836199999974127  0.1748899969998305  0.0695599989999991   F   F   F
  0.2280600069980494  0.1082200040010477  0.0000000000000000   F   F   F
  0.3362883500877799  0.1380115469861711  0.1385208077373303   T   T   T
  0.4502800110011265  0.1748899969998305  0.0695599989999991   F   F   F
  0.3947300019999105  0.1082200040010477  0.0000000000000000   F   F   F
  0.5036325888161358  0.1381973881062281  0.1388127252428883   T   T   T
  0.6169499749975103  0.1748899969998305  0.0695599989999991   F   F   F
  0.5613999960041198  0.1082200040010477  0.0000000000000000   F   F   F
  0.6712016203358301  0.1390391960456638  0.1391436445734092   T   T   T
  0.7836200000006741  0.1748899969998305  0.0695599989999991   F   F   F
  0.7280600070013179  0.1082200040010477  0.0000000000000000   F   F   F
  0.8370133708590738  0.1389940645475197  0.1389235048577928   T   T   T
  0.9502800109978722  0.1748899969998305  0.0695599989999991   F   F   F
  0.8947299720018762  0.1082200040010477  0.0000000000000000   F   F   F
  0.0030429155793412  0.2376089789924375  0.1381637659343573   T   T   T
  0.1169499979987236  0.2748900059980031  0.0695599989999991   F   F   F
  0.0614000000011075  0.2082200049985374  0.0000000000000000   F   F   F
  0.1642364174755780  0.2351148729966374  0.1410781932631918   T   T   T
  0.2836199999971925  0.2748900059980031  0.0695599989999991   F   F   F
  0.2280600070011687  0.2082200049985374  0.0000000000000000   F   F   F
  0.3345087779086035  0.2365351166400012  0.1401895266663229   T   T   T
  0.4502800110009062  0.2748900059980031  0.0695599989999991   F   F   F
  0.3947300019965141  0.2082200049985374  0.0000000000000000   F   F   F
  0.5026315288260599  0.2358147353346073  0.1397235049240145   T   T   T
  0.6169499749972900  0.2748900059980031  0.0695599989999991   F   F   F
  0.5613999960007163  0.2082200049985374  0.0000000000000000   F   F   F
  0.6700811379063707  0.2362904384888681  0.1378652166211023   T   T   T
  0.7836200000004538  0.2748900059980031  0.0695599989999991   F   F   F
  0.7280600069979144  0.2082200049985374  0.0000000000000000   F   F   F
  0.8357140574014541  0.2375736251486449  0.1384128897746746   T   T   T
  0.9502800109976448  0.2748900059980031  0.0695599989999991   F   F   F
  0.8947299719984656  0.2082200049985374  0.0000000000000000   F   F   F
  0.0006285514229545  0.3349041595535786  0.1398582415624883   T   T   T
  0.1169499980035553  0.3748900000022317  0.0695599989999991   F   F   F
  0.0613999999956576  0.3082199989982470  0.0000000000000000   F   F   F
  0.1689833696922702  0.3367004244351400  0.1393435918092344   T   T   T
  0.2836200000020241  0.3748900000022317  0.0695599989999991   F   F   F
  0.2280600069957188  0.3082199989982470  0.0000000000000000   F   F   F
  0.3354790332766409  0.3369618227110558  0.1397642499513630   T   T   T
  0.4502800109992151  0.3748900000022317  0.0695599989999991   F   F   F
  0.3947300019975799  0.3082199989982470  0.0000000000000000   F   F   F
  0.5020791375206665  0.3358402303104025  0.1411016500989086   T   T   T
  0.6169499750021217  0.3748900000022317  0.0695599989999991   F   F   F
  0.5613999960017821  0.3082199989982470  0.0000000000000000   F   F   F
  0.6709101489202729  0.3372890586500195  0.1394407262754971   T   T   T
  0.7836199999987628  0.3748900000022317  0.0695599989999991   F   F   F
  0.7280600069989802  0.3082199989982470  0.0000000000000000   F   F   F
  0.8350491246626160  0.3362011543109771  0.1392912376692182   T   T   T
  0.9502800110024765  0.3748900000022317  0.0695599989999991   F   F   F
  0.8947299719995314  0.3082199989982470  0.0000000000000000   F   F   F
  0.0072653116420644  0.4428285016495736  0.1403680844875903   T   T   T
  0.1169499980046211  0.4748899940019484  0.0695599989999991   F   F   F
  0.0613999999967234  0.4082199929979637  0.0000000000000000   F   F   F
  0.1735825447859080  0.4429804797209723  0.1403440152981809   T   T   T
  0.2836200000030900  0.4748899940019484  0.0695599989999991   F   F   F
  0.2280600069967846  0.4082199929979637  0.0000000000000000   F   F   F
  0.3391268821056027  0.4413226912839950  0.1382415484272740   T   T   T
  0.4502800110002809  0.4748899940019484  0.0695599989999991   F   F   F
  0.3947300019986386  0.4082199929979637  0.0000000000000000   F   F   F
  0.5073546003893051  0.4432697085519234  0.1404202420679894   T   T   T
  0.6169499750031875  0.4748899940019484  0.0695599989999991   F   F   F
  0.5613999959963323  0.4082199929979637  0.0000000000000000   F   F   F
  0.6748029855138069  0.4436201807087840  0.1401465278864456   T   T   T
  0.7836199999998286  0.4748899940019484  0.0695599989999991   F   F   F
  0.7280600070000389  0.4082199929979637  0.0000000000000000   F   F   F
  0.8382145845844379  0.4401451511737642  0.1388487463254494   T   T   T
  0.9502800110035423  0.4748899940019484  0.0695599989999991   F   F   F
  0.8947299720005972  0.4082199929979637  0.0000000000000000   F   F   F
  0.0085062163474944  0.5422496839326557  0.1394101613425182   T   T   T
  0.1169499979965849  0.5748900179985768  0.0695599989999991   F   F   F
  0.0613999999989829  0.5082200169991040  0.0000000000000000   F   F   F
  0.1741256433431410  0.5436106125013360  0.1339430030800545   T   T   T
  0.2836200000015765  0.5748900179985768  0.0695599989999991   F   F   F
  0.2280600069990442  0.5082200169991040  0.0000000000000000   F   F   F
  0.3378244708275415  0.5425862104465793  0.1393991876974397   T   T   T
  0.4502800109987746  0.5748900179985768  0.0695599989999991   F   F   F
  0.3947300020008981  0.5082200169991040  0.0000000000000000   F   F   F
  0.5083513188900375  0.5426363934557391  0.1394162249317207   T   T   T
  0.6169499750016811  0.5748900179985768  0.0695599989999991   F   F   F
  0.5613999959985918  0.5082200169991040  0.0000000000000000   F   F   F
  0.6741766734506496  0.5436834341519832  0.1334361749783000   T   T   T
  0.7836199999983222  0.5748900179985768  0.0695599989999991   F   F   F
  0.7280600070022984  0.5082200169991040  0.0000000000000000   F   F   F
  0.8386578491065072  0.5426900700581698  0.1395785324512968   T   T   T
  0.9502800110020360  0.5748900179985768  0.0695599989999991   F   F   F
  0.8947299719963411  0.5082200169991040  0.0000000000000000   F   F   F
  0.0105062558615282  0.6468265151890609  0.1452870696277443   T   T   T
  0.1169499980002229  0.6748899820013747  0.0695599989999991   F   F   F
  0.0614000000026067  0.6082199810019020  0.0000000000000000   F   F   F
  0.1751426698730089  0.6441234510635165  0.1396900058643135   T   T   T
  0.2836199999986988  0.6748899820013747  0.0695599989999991   F   F   F
  0.2280600070026679  0.6082199810019020  0.0000000000000000   F   F   F
  0.3405408655525049  0.6441713953143068  0.1393277525320513   T   T   T
  0.4502800110024126  0.6748899820013747  0.0695599989999991   F   F   F
  0.3947300020045361  0.6082199810019020  0.0000000000000000   F   F   F
  0.5099655593754179  0.6466820167908801  0.1450484542627176   T   T   T
  0.6169499749987963  0.6748899820013747  0.0695599989999991   F   F   F
  0.5613999960022227  0.6082199810019020  0.0000000000000000   F   F   F
  0.6750591756447999  0.6440199193476858  0.1397473416572466   T   T   T
  0.7836200000019602  0.6748899820013747  0.0695599989999991   F   F   F
  0.7280600069994136  0.6082199810019020  0.0000000000000000   F   F   F
  0.8409576549168838  0.6440758306816428  0.1393045530983892   T   T   T
  0.9502800109991512  0.6748899820013747  0.0695599989999991   F   F   F
  0.8947299719999720  0.6082199810019020  0.0000000000000000   F   F   F
  0.0098196271153198  0.7456247521878394  0.1348135243112906   T   T   T
  0.1169499979987165  0.7748900059980031  0.0695599989999991   F   F   F
  0.0614000000011075  0.7082200049985374  0.0000000000000000   F   F   F
  0.1748335625444410  0.7456148824094114  0.1344348145580798   T   T   T
  0.2836199999971925  0.7748900059980031  0.0695599989999991   F   F   F
  0.2280600070011687  0.7082200049985374  0.0000000000000000   F   F   F
  0.3413025085459815  0.7441939681739556  0.1395966721342067   T   T   T
  0.4502800110009062  0.7748900059980031  0.0695599989999991   F   F   F
  0.3947300019965141  0.7082200049985374  0.0000000000000000   F   F   F
  0.5101783070956420  0.7458313563709290  0.1346191899399462   T   T   T
  0.6169499749972900  0.7748900059980031  0.0695599989999991   F   F   F
  0.5613999960007163  0.7082200049985374  0.0000000000000000   F   F   F
  0.6749894841369165  0.7457707523478312  0.1346300419704101   T   T   T
  0.7836200000004538  0.7748900059980031  0.0695599989999991   F   F   F
  0.7280600069979144  0.7082200049985374  0.0000000000000000   F   F   F
  0.8413739010375696  0.7442983235371652  0.1390905013694624   T   T   T
  0.9502800109976448  0.7748900059980031  0.0695599989999991   F   F   F
  0.8947299719984656  0.7082200049985374  0.0000000000000000   F   F   F
  0.0065288328391894  0.8425127804036148  0.1402281105305103   T   T   T
  0.1169499980036193  0.8748900290007597  0.0695599989999991   F   F   F
  0.0613999999968371  0.8082200289996777  0.0000000000000000   F   F   F
  0.1739246574076427  0.8431824691653469  0.1403496964166062   T   T   T
  0.2836200000020881  0.8748900290007597  0.0695599989999991   F   F   F
  0.2280600069969054  0.8082200289996777  0.0000000000000000   F   F   F
  0.3402572840053396  0.8428543914294119  0.1399084103810055   T   T   T
  0.4502800109992933  0.8748900290007597  0.0695599989999991   F   F   F
  0.3947300019987665  0.8082200289996777  0.0000000000000000   F   F   F
  0.5066150835058290  0.8427389166100038  0.1402629154554884   T   T   T
  0.6169499750021927  0.8748900290007597  0.0695599989999991   F   F   F
  0.5613999960029759  0.8082200289996777  0.0000000000000000   F   F   F
  0.6735901385886660  0.8432623101111391  0.1406465862657491   T   T   T
  0.7836199999988409  0.8748900290007597  0.0695599989999991   F   F   F
  0.7280600070001739  0.8082200289996777  0.0000000000000000   F   F   F
  0.8398573052016949  0.8425096284808421  0.1403455301382804   T   T   T
  0.9502800110025476  0.8748900290007597  0.0695599989999991   F   F   F
  0.8947299720007251  0.8082200289996777  0.0000000000000000   F   F   F
  0.0054561292490289  0.9411696528691965  0.1394314131107266   T   T   T
  0.1169499980046069  0.9748899940019484  0.0695599989999991   F   F   F
  0.0613999999967092  0.9082199929979637  0.0000000000000000   F   F   F
  0.1722713960674147  0.9413025321294657  0.1395906972269560   T   T   T
  0.2836200000030757  0.9748899940019484  0.0695599989999991   F   F   F
  0.2280600069967704  0.9082199929979637  0.0000000000000000   F   F   F
  0.3392632293956541  0.9415325890339507  0.1394614271162327   T   T   T
  0.4502800110002738  0.9748899940019484  0.0695599989999991   F   F   F
  0.3947300019986315  0.9082199929979637  0.0000000000000000   F   F   F
  0.5058060073462635  0.9414059800402513  0.1393086073957716   T   T   T
  0.6169499750031875  0.9748899940019484  0.0695599989999991   F   F   F
  0.5613999959963252  0.9082199929979637  0.0000000000000000   F   F   F
  0.6721995924020396  0.9414636943678449  0.1393699684205050   T   T   T
  0.7836199999998286  0.9748899940019484  0.0695599989999991   F   F   F
  0.7280600070000389  0.9082199929979637  0.0000000000000000   F   F   F
  0.8388288730597742  0.9411700419582186  0.1394410018296320   T   T   T
  0.9502800110035423  0.9748899940019484  0.0695599989999991   F   F   F
  0.8947299720005972  0.9082199929979637  0.0000000000000000   F   F   F
  0.2827039032014708  0.3764101382200004  0.1843377282676274   T   T   T
  0.5571404694656960  0.4030555557866779  0.1839166265978939   T   T   T
  0.7835852136327007  0.3726956159389911  0.1853927980217069   T   T   T
  0.0532850444914803  0.3983235207112332  0.1840104875956589   T   T   T
  0.1062971650526637  0.4634058881699925  0.2954622803788614   T   T   T
  0.2656381906928815  0.5045514353780090  0.1961262613098923   T   T   T
  0.3536261911500074  0.4602854351510328  0.2969711626502016   T   T   T
  0.5086637796902331  0.5017079891010539  0.1956694178093038   T   T   T
  0.6062490301950386  0.4631351073613401  0.2954395286072297   T   T   T
  0.7711160098848463  0.5043394015182722  0.1964899333070930   T   T   T
  0.8557601996277964  0.4615597567968664  0.2974750456241997   T   T   T
  0.0130070558799585  0.5026007996265015  0.1959409934988006   T   T   T
  0.1029009186950834  0.6056942322882815  0.3069570432057923   T   T   T
  0.2816999579877302  0.6741762829769565  0.1945267232861903   T   T   T
  0.1916129547503577  0.5695752964355993  0.4080282536997309   T   T   T
  0.3482568558372015  0.6049826250308239  0.3043851799338064   T   T   T
  0.5276895293559892  0.6686897902618464  0.2109633683576863   T   T   T
  0.4419434635402326  0.5701264275905158  0.4057617830626402   T   T   T
  0.6027029326349024  0.6066177162131560  0.3049462890976922   T   T   T
  0.7773151110843745  0.6696798751913252  0.1947115859598998   T   T   T
  0.6920768771816991  0.5686648973600771  0.4065231157251489   T   T   T
  0.8477112072173567  0.6066167925720249  0.3031711549443155   T   T   T
  0.0341211617639582  0.6695931180274027  0.2111703227575405   T   T   T
  0.9441508710791622  0.5716404890859360  0.4061533063667115   T   T   T
  0.1147924084150716  0.7736635309907562  0.3027548559529408   T   T   T
  0.1961887628459998  0.7252738759189750  0.4097690500755231   T   T   T
  0.3713757789212360  0.7721111528624480  0.3043955037731354   T   T   T
  0.4289388487631992  0.7098699724845617  0.4209319834007871   T   T   T
  0.6197306078787278  0.7766063011299924  0.3042787043821670   T   T   T
  0.6844054919455023  0.7114751007486054  0.4146616290384545   T   T   T
  0.8707619294875037  0.7747446845385658  0.3036556758503295   T   T   T
  0.9311132852539922  0.7094563856189497  0.4199863494625047   T   T   T
  0.1854381790472169  0.8746487539299597  0.4034288980147150   T   T   T
  0.4337480959100839  0.8734564134928819  0.4113496495490622   T   T   T
  0.6860014372017341  0.8753683872008712  0.4035272127616604   T   T   T
  0.9328757944577739  0.8750208402457192  0.4041288954145960   T   T   T
  0.2735827803238374  0.2626040735589393  0.2272682203151221   T   T   T
  0.5080160620637255  0.2815009714809825  0.2324868315771876   T   T   T
  0.2651094891789122  0.5031580652399771  0.3461330663931987   T   T   T
  0.1838891139669128  0.4041182279152544  0.2419043226486833   T   T   T
  0.5158770232508141  0.5031750624356272  0.3456131494772451   T   T   T
  0.4282904182615700  0.3991407475484564  0.2421312693271354   T   T   T
  0.7647198613609093  0.5041986061379296  0.3456974279579034   T   T   T
  0.6843638006272454  0.4036120727774553  0.2424520470107854   T   T   T
  0.0164860616656463  0.5032387701740405  0.3471104508005026   T   T   T
  0.9325760451145670  0.4038838013655582  0.2423277399514568   T   T   T
  0.0986750192564151  0.6084270532713266  0.4499159021847497   T   T   T
  0.2773204312785779  0.6634506737116571  0.3456552292816287   T   T   T
  0.1897466851885729  0.5639016812281069  0.2375344127480166   T   T   T
  0.3438117693424291  0.6010092817496504  0.4537724784317642   T   T   T
  0.5245485297234178  0.6637784748800586  0.3425163873917668   T   T   T
  0.4370499630445665  0.5599922348318698  0.2399447759725105   T   T   T
  0.5948267812211224  0.6032105623965286  0.4511020367954131   T   T   T
  0.7748194723502324  0.6644774521928095  0.3452308796024393   T   T   T
  0.6860205311540419  0.5597681225994960  0.2364843669834138   T   T   T
  0.8434111416394259  0.6014102112521398  0.4534088336292122   T   T   T
  0.0216371993117844  0.6630956024354252  0.3420173540988687   T   T   T
  0.9400557445337806  0.5610411385000413  0.2403102413204116   T   T   T
  0.1054852424521106  0.7726134084027947  0.4505934978265071   T   T   T
  0.2841155347321349  0.8201041858713187  0.3444460740057237   T   T   T
  0.2117043463886810  0.7387112383354677  0.2328987447321245   T   T   T
  0.3581786631671679  0.7708805081267882  0.4561785147439636   T   T   T
  0.5514873025740400  0.8409257582065073  0.3293851527132851   T   T   T
  0.4558320647695950  0.7328303181289765  0.2333942828976218   T   T   T
  0.6073778391128429  0.7708564812699163  0.4473750199458342   T   T   T
  0.8007716317210133  0.8379740333744832  0.3313005896371798   T   T   T
  0.7059455903722087  0.7317247433020335  0.2330725280807525   T   T   T
  0.8567150147727770  0.7715353954999160  0.4490278042655995   T   T   T
  0.0550048093142825  0.8418906755942523  0.3252544511486398   T   T   T
  0.9514703096675640  0.7278238334102186  0.2334648812401701   T   T   T
  0.1116123760296036  0.9378248555591896  0.4294636558224771   T   T   T
  0.3625132235749982  0.9394168516990111  0.4326422460297303   T   T   T
  0.6113755171647078  0.9358939136376674  0.4359819864242703   T   T   T
  0.8610803550559741  0.9375936759738421  0.4334561214455984   T   T   T
  0.2673156388724816  0.2547404098817403  0.1875664734318010   T   T   T
  0.5039228894249157  0.2709469019954725  0.1934241758362462   T   T   T
 
  0.00000000E+00  0.00000000E+00  0.00000000E+00
  0.00000000E+00  0.00000000E+00  0.00000000E+00
  0.00000000E+00  0.00000000E+00  0.00000000E+00
  0.00000000E+00  0.00000000E+00  0.00000000E+00
  0.00000000E+00  0.00000000E+00  0.00000000E+00
  0.00000000E+00  0.00000000E+00  0.00000000E+00
  0.00000000E+00  0.00000000E+00  0.00000000E+00
  0.00000000E+00  0.00000000E+00  0.00000000E+00
  0.00000000E+00  0.00000000E+00  0.00000000E+00
  0.00000000E+00  0.00000000E+00  0.00000000E+00
  0.00000000E+00  0.00000000E+00  0.00000000E+00
  0.00000000E+00  0.00000000E+00  0.00000000E+00
  0.00000000E+00  0.00000000E+00  0.00000000E+00
  0.00000000E+00  0.00000000E+00  0.00000000E+00
  0.00000000E+00  0.00000000E+00  0.00000000E+00
  0.00000000E+00  0.00000000E+00  0.00000000E+00
  0.00000000E+00  0.00000000E+00  0.00000000E+00
  0.00000000E+00  0.00000000E+00  0.00000000E+00
  0.00000000E+00  0.00000000E+00  0.00000000E+00
  0.00000000E+00  0.00000000E+00  0.00000000E+00
  0.00000000E+00  0.00000000E+00  0.00000000E+00
  0.00000000E+00  0.00000000E+00  0.00000000E+00
  0.00000000E+00  0.00000000E+00  0.00000000E+00
  0.00000000E+00  0.00000000E+00  0.00000000E+00
  0.00000000E+00  0.00000000E+00  0.00000000E+00
  0.00000000E+00  0.00000000E+00  0.00000000E+00
  0.00000000E+00  0.00000000E+00  0.00000000E+00
  0.00000000E+00  0.00000000E+00  0.00000000E+00
  0.00000000E+00  0.00000000E+00  0.00000000E+00
  0.00000000E+00  0.00000000E+00  0.00000000E+00
  0.00000000E+00  0.00000000E+00  0.00000000E+00
  0.00000000E+00  0.00000000E+00  0.00000000E+00
  0.00000000E+00  0.00000000E+00  0.00000000E+00
  0.00000000E+00  0.00000000E+00  0.00000000E+00
  0.00000000E+00  0.00000000E+00  0.00000000E+00
  0.00000000E+00  0.00000000E+00  0.00000000E+00
  0.00000000E+00  0.00000000E+00  0.00000000E+00
  0.00000000E+00  0.00000000E+00  0.00000000E+00
  0.00000000E+00  0.00000000E+00  0.00000000E+00
  0.00000000E+00  0.00000000E+00  0.00000000E+00
  0.00000000E+00  0.00000000E+00  0.00000000E+00
  0.00000000E+00  0.00000000E+00  0.00000000E+00
  0.00000000E+00  0.00000000E+00  0.00000000E+00
  0.00000000E+00  0.00000000E+00  0.00000000E+00
  0.00000000E+00  0.00000000E+00  0.00000000E+00
  0.00000000E+00  0.00000000E+00  0.00000000E+00
  0.00000000E+00  0.00000000E+00  0.00000000E+00
  0.00000000E+00  0.00000000E+00  0.00000000E+00
  0.00000000E+00  0.00000000E+00  0.00000000E+00
  0.00000000E+00  0.00000000E+00  0.00000000E+00
  0.00000000E+00  0.00000000E+00  0.00000000E+00
  0.00000000E+00  0.00000000E+00  0.00000000E+00
  0.00000000E+00  0.00000000E+00  0.00000000E+00
  0.00000000E+00  0.00000000E+00  0.00000000E+00
  0.00000000E+00  0.00000000E+00  0.00000000E+00
  0.00000000E+00  0.00000000E+00  0.00000000E+00
  0.00000000E+00  0.00000000E+00  0.00000000E+00
  0.00000000E+00  0.00000000E+00  0.00000000E+00
  0.00000000E+00  0.00000000E+00  0.00000000E+00
  0.00000000E+00  0.00000000E+00  0.00000000E+00
  0.00000000E+00  0.00000000E+00  0.00000000E+00
  0.00000000E+00  0.00000000E+00  0.00000000E+00
  0.00000000E+00  0.00000000E+00  0.00000000E+00
  0.00000000E+00  0.00000000E+00  0.00000000E+00
  0.00000000E+00  0.00000000E+00  0.00000000E+00
  0.00000000E+00  0.00000000E+00  0.00000000E+00
  0.00000000E+00  0.00000000E+00  0.00000000E+00
  0.00000000E+00  0.00000000E+00  0.00000000E+00
  0.00000000E+00  0.00000000E+00  0.00000000E+00
  0.00000000E+00  0.00000000E+00  0.00000000E+00
  0.00000000E+00  0.00000000E+00  0.00000000E+00
  0.00000000E+00  0.00000000E+00  0.00000000E+00
  0.00000000E+00  0.00000000E+00  0.00000000E+00
  0.00000000E+00  0.00000000E+00  0.00000000E+00
  0.00000000E+00  0.00000000E+00  0.00000000E+00
  0.00000000E+00  0.00000000E+00  0.00000000E+00
  0.00000000E+00  0.00000000E+00  0.00000000E+00
  0.00000000E+00  0.00000000E+00  0.00000000E+00
  0.00000000E+00  0.00000000E+00  0.00000000E+00
  0.00000000E+00  0.00000000E+00  0.00000000E+00
  0.00000000E+00  0.00000000E+00  0.00000000E+00
  0.00000000E+00  0.00000000E+00  0.00000000E+00
  0.00000000E+00  0.00000000E+00  0.00000000E+00
  0.00000000E+00  0.00000000E+00  0.00000000E+00
  0.00000000E+00  0.00000000E+00  0.00000000E+00
  0.00000000E+00  0.00000000E+00  0.00000000E+00
  0.00000000E+00  0.00000000E+00  0.00000000E+00
  0.00000000E+00  0.00000000E+00  0.00000000E+00
  0.00000000E+00  0.00000000E+00  0.00000000E+00
  0.00000000E+00  0.00000000E+00  0.00000000E+00
  0.00000000E+00  0.00000000E+00  0.00000000E+00
  0.00000000E+00  0.00000000E+00  0.00000000E+00
  0.00000000E+00  0.00000000E+00  0.00000000E+00
  0.00000000E+00  0.00000000E+00  0.00000000E+00
  0.00000000E+00  0.00000000E+00  0.00000000E+00
  0.00000000E+00  0.00000000E+00  0.00000000E+00
  0.00000000E+00  0.00000000E+00  0.00000000E+00
  0.00000000E+00  0.00000000E+00  0.00000000E+00
  0.00000000E+00  0.00000000E+00  0.00000000E+00
  0.00000000E+00  0.00000000E+00  0.00000000E+00
  0.00000000E+00  0.00000000E+00  0.00000000E+00
  0.00000000E+00  0.00000000E+00  0.00000000E+00
  0.00000000E+00  0.00000000E+00  0.00000000E+00
  0.00000000E+00  0.00000000E+00  0.00000000E+00
  0.00000000E+00  0.00000000E+00  0.00000000E+00
  0.00000000E+00  0.00000000E+00  0.00000000E+00
  0.00000000E+00  0.00000000E+00  0.00000000E+00
  0.00000000E+00  0.00000000E+00  0.00000000E+00
  0.00000000E+00  0.00000000E+00  0.00000000E+00
  0.00000000E+00  0.00000000E+00  0.00000000E+00
  0.00000000E+00  0.00000000E+00  0.00000000E+00
  0.00000000E+00  0.00000000E+00  0.00000000E+00
  0.00000000E+00  0.00000000E+00  0.00000000E+00
  0.00000000E+00  0.00000000E+00  0.00000000E+00
  0.00000000E+00  0.00000000E+00  0.00000000E+00
  0.00000000E+00  0.00000000E+00  0.00000000E+00
  0.00000000E+00  0.00000000E+00  0.00000000E+00
  0.00000000E+00  0.00000000E+00  0.00000000E+00
  0.00000000E+00  0.00000000E+00  0.00000000E+00
  0.00000000E+00  0.00000000E+00  0.00000000E+00
  0.00000000E+00  0.00000000E+00  0.00000000E+00
  0.00000000E+00  0.00000000E+00  0.00000000E+00
  0.00000000E+00  0.00000000E+00  0.00000000E+00
  0.00000000E+00  0.00000000E+00  0.00000000E+00
  0.00000000E+00  0.00000000E+00  0.00000000E+00
  0.00000000E+00  0.00000000E+00  0.00000000E+00
  0.00000000E+00  0.00000000E+00  0.00000000E+00
  0.00000000E+00  0.00000000E+00  0.00000000E+00
  0.00000000E+00  0.00000000E+00  0.00000000E+00
  0.00000000E+00  0.00000000E+00  0.00000000E+00
  0.00000000E+00  0.00000000E+00  0.00000000E+00
  0.00000000E+00  0.00000000E+00  0.00000000E+00
  0.00000000E+00  0.00000000E+00  0.00000000E+00
  0.00000000E+00  0.00000000E+00  0.00000000E+00
  0.00000000E+00  0.00000000E+00  0.00000000E+00
  0.00000000E+00  0.00000000E+00  0.00000000E+00
  0.00000000E+00  0.00000000E+00  0.00000000E+00
  0.00000000E+00  0.00000000E+00  0.00000000E+00
  0.00000000E+00  0.00000000E+00  0.00000000E+00
  0.00000000E+00  0.00000000E+00  0.00000000E+00
  0.00000000E+00  0.00000000E+00  0.00000000E+00
  0.00000000E+00  0.00000000E+00  0.00000000E+00
  0.00000000E+00  0.00000000E+00  0.00000000E+00
  0.00000000E+00  0.00000000E+00  0.00000000E+00
  0.00000000E+00  0.00000000E+00  0.00000000E+00
  0.00000000E+00  0.00000000E+00  0.00000000E+00
  0.00000000E+00  0.00000000E+00  0.00000000E+00
  0.00000000E+00  0.00000000E+00  0.00000000E+00
  0.00000000E+00  0.00000000E+00  0.00000000E+00
  0.00000000E+00  0.00000000E+00  0.00000000E+00
  0.00000000E+00  0.00000000E+00  0.00000000E+00
  0.00000000E+00  0.00000000E+00  0.00000000E+00
  0.00000000E+00  0.00000000E+00  0.00000000E+00
  0.00000000E+00  0.00000000E+00  0.00000000E+00
  0.00000000E+00  0.00000000E+00  0.00000000E+00
  0.00000000E+00  0.00000000E+00  0.00000000E+00
  0.00000000E+00  0.00000000E+00  0.00000000E+00
  0.00000000E+00  0.00000000E+00  0.00000000E+00
  0.00000000E+00  0.00000000E+00  0.00000000E+00
  0.00000000E+00  0.00000000E+00  0.00000000E+00
  0.00000000E+00  0.00000000E+00  0.00000000E+00
  0.00000000E+00  0.00000000E+00  0.00000000E+00
  0.00000000E+00  0.00000000E+00  0.00000000E+00
  0.00000000E+00  0.00000000E+00  0.00000000E+00
  0.00000000E+00  0.00000000E+00  0.00000000E+00
  0.00000000E+00  0.00000000E+00  0.00000000E+00
  0.00000000E+00  0.00000000E+00  0.00000000E+00
  0.00000000E+00  0.00000000E+00  0.00000000E+00
  0.00000000E+00  0.00000000E+00  0.00000000E+00
  0.00000000E+00  0.00000000E+00  0.00000000E+00
  0.00000000E+00  0.00000000E+00  0.00000000E+00
  0.00000000E+00  0.00000000E+00  0.00000000E+00
  0.00000000E+00  0.00000000E+00  0.00000000E+00
  0.00000000E+00  0.00000000E+00  0.00000000E+00
  0.00000000E+00  0.00000000E+00  0.00000000E+00
  0.00000000E+00  0.00000000E+00  0.00000000E+00
  0.00000000E+00  0.00000000E+00  0.00000000E+00
  0.00000000E+00  0.00000000E+00  0.00000000E+00
  0.00000000E+00  0.00000000E+00  0.00000000E+00
  0.00000000E+00  0.00000000E+00  0.00000000E+00
  0.00000000E+00  0.00000000E+00  0.00000000E+00
  0.00000000E+00  0.00000000E+00  0.00000000E+00
  0.00000000E+00  0.00000000E+00  0.00000000E+00
  0.00000000E+00  0.00000000E+00  0.00000000E+00
  0.00000000E+00  0.00000000E+00  0.00000000E+00
  0.00000000E+00  0.00000000E+00  0.00000000E+00
  0.00000000E+00  0.00000000E+00  0.00000000E+00
  0.00000000E+00  0.00000000E+00  0.00000000E+00
  0.00000000E+00  0.00000000E+00  0.00000000E+00
  0.00000000E+00  0.00000000E+00  0.00000000E+00
  0.00000000E+00  0.00000000E+00  0.00000000E+00
  0.00000000E+00  0.00000000E+00  0.00000000E+00
  0.00000000E+00  0.00000000E+00  0.00000000E+00
  0.00000000E+00  0.00000000E+00  0.00000000E+00
  0.00000000E+00  0.00000000E+00  0.00000000E+00
  0.00000000E+00  0.00000000E+00  0.00000000E+00
  0.00000000E+00  0.00000000E+00  0.00000000E+00
  0.00000000E+00  0.00000000E+00  0.00000000E+00
  0.00000000E+00  0.00000000E+00  0.00000000E+00
  0.00000000E+00  0.00000000E+00  0.00000000E+00
  0.00000000E+00  0.00000000E+00  0.00000000E+00
  0.00000000E+00  0.00000000E+00  0.00000000E+00
  0.00000000E+00  0.00000000E+00  0.00000000E+00
  0.00000000E+00  0.00000000E+00  0.00000000E+00
  0.00000000E+00  0.00000000E+00  0.00000000E+00
  0.00000000E+00  0.00000000E+00  0.00000000E+00
  0.00000000E+00  0.00000000E+00  0.00000000E+00
  0.00000000E+00  0.00000000E+00  0.00000000E+00
  0.00000000E+00  0.00000000E+00  0.00000000E+00
  0.00000000E+00  0.00000000E+00  0.00000000E+00
  0.00000000E+00  0.00000000E+00  0.00000000E+00
  0.00000000E+00  0.00000000E+00  0.00000000E+00
  0.00000000E+00  0.00000000E+00  0.00000000E+00
  0.00000000E+00  0.00000000E+00  0.00000000E+00
  0.00000000E+00  0.00000000E+00  0.00000000E+00
  0.00000000E+00  0.00000000E+00  0.00000000E+00
  0.00000000E+00  0.00000000E+00  0.00000000E+00
  0.00000000E+00  0.00000000E+00  0.00000000E+00
  0.00000000E+00  0.00000000E+00  0.00000000E+00
  0.00000000E+00  0.00000000E+00  0.00000000E+00
  0.00000000E+00  0.00000000E+00  0.00000000E+00
  0.00000000E+00  0.00000000E+00  0.00000000E+00
  0.00000000E+00  0.00000000E+00  0.00000000E+00