Cu  O Ba  C                             
   1.00000000000000     
    15.3360004424999996    0.0000000000000000    0.0000000000000000
   -12.7799997330000004   22.1356088582000012    0.0000000000000000
     0.0000000000000000    0.0000000000000000   30.0000000000000000
   Cu   O    Ba   C 
   180    38    36     2
Selective dynamics
Direct
  0.0049498755453130  0.0402877501515440  0.1392901702165893   T   T   T
  0.1169499979978781  0.0748900030001138  0.0695599989999991   F   F   F
  0.0614000000017896  0.0082199999993477  0.0000000000000000   F   F   F
  0.1716595832690345  0.0405031312095449  0.1391296068499099   T   T   T
  0.2836200000028697  0.0748900030001138  0.0695599989999991   F   F   F
  0.2280600070018508  0.0082199999993477  0.0000000000000000   F   F   F
  0.3385872324769301  0.0405115877789959  0.1391152804013725   T   T   T
  0.4502800110000607  0.0748900030001138  0.0695599989999991   F   F   F
  0.3947300019971891  0.0082199999993477  0.0000000000000000   F   F   F
  0.5051063159828563  0.0403756818038096  0.1392472151722981   T   T   T
  0.6169499750029672  0.0748900030001138  0.0695599989999991   F   F   F
  0.5613999960013984  0.0082199999993477  0.0000000000000000   F   F   F
  0.6715869309473012  0.0401802047107881  0.1393651001091360   T   T   T
  0.7836199999996083  0.0748900030001138  0.0695599989999991   F   F   F
  0.7280600069985965  0.0082199999993477  0.0000000000000000   F   F   F
  0.8380513274254031  0.0401179035334497  0.1392345307582136   T   T   T
  0.9502800110033220  0.0748900030001138  0.0695599989999991   F   F   F
  0.8947299719991619  0.0082199999993477  0.0000000000000000   F   F   F
  0.0024364301247192  0.1384171998865678  0.1393247503657490   T   T   T
  0.1169499979989439  0.1748899969998305  0.0695599989999991   F   F   F
  0.0613999999979882  0.1082200040010477  0.0000000000000000   F   F   F
  0.1693008352617674  0.1383957116251430  0.1392480063789136   T   T   T
  0.2836199999974127  0.1748899969998305  0.0695599989999991   F   F   F
  0.2280600069980494  0.1082200040010477  0.0000000000000000   F   F   F
  0.3377867515942378  0.1394335599531049  0.1390448120048222   T   T   T
  0.4502800110011265  0.1748899969998305  0.0695599989999991   F   F   F
  0.3947300019999105  0.1082200040010477  0.0000000000000000   F   F   F
  0.5043333000867269  0.1384757169315521  0.1390447799570200   T   T   T
  0.6169499749975103  0.1748899969998305  0.0695599989999991   F   F   F
  0.5613999960041198  0.1082200040010477  0.0000000000000000   F   F   F
  0.6713463077313148  0.1386490091135034  0.1393402098450116   T   T   T
  0.7836200000006741  0.1748899969998305  0.0695599989999991   F   F   F
  0.7280600070013179  0.1082200040010477  0.0000000000000000   F   F   F
  0.8372774496653056  0.1389566348284878  0.1391751720428372   T   T   T
  0.9502800109978722  0.1748899969998305  0.0695599989999991   F   F   F
  0.8947299720018762  0.1082200040010477  0.0000000000000000   F   F   F
  0.0022470554469609  0.2374480323517996  0.1386910259178938   T   T   T
  0.1169499979987236  0.2748900059980031  0.0695599989999991   F   F   F
  0.0614000000011075  0.2082200049985374  0.0000000000000000   F   F   F
  0.1646856385171875  0.2362293818283899  0.1378603708983749   T   T   T
  0.2836199999971925  0.2748900059980031  0.0695599989999991   F   F   F
  0.2280600070011687  0.2082200049985374  0.0000000000000000   F   F   F
  0.3300652533540863  0.2372821757425577  0.1410481188724975   T   T   T
  0.4502800110009062  0.2748900059980031  0.0695599989999991   F   F   F
  0.3947300019965141  0.2082200049985374  0.0000000000000000   F   F   F
  0.5091942325032814  0.2378791553147029  0.1413804653584340   T   T   T
  0.6169499749972900  0.2748900059980031  0.0695599989999991   F   F   F
  0.5613999960007163  0.2082200049985374  0.0000000000000000   F   F   F
  0.6724001758840383  0.2364593930851890  0.1379318428851573   T   T   T
  0.7836200000004538  0.2748900059980031  0.0695599989999991   F   F   F
  0.7280600069979144  0.2082200049985374  0.0000000000000000   F   F   F
  0.8369600755908158  0.2373686703849944  0.1387596265388417   T   T   T
  0.9502800109976448  0.2748900059980031  0.0695599989999991   F   F   F
  0.8947299719984656  0.2082200049985374  0.0000000000000000   F   F   F
  0.0009483675382867  0.3346470367001042  0.1397370264294634   T   T   T
  0.1169499980035553  0.3748900000022317  0.0695599989999991   F   F   F
  0.0613999999956576  0.3082199989982470  0.0000000000000000   F   F   F
  0.1689620045483234  0.3362793302005297  0.1394914987239302   T   T   T
  0.2836200000020241  0.3748900000022317  0.0695599989999991   F   F   F
  0.2280600069957188  0.3082199989982470  0.0000000000000000   F   F   F
  0.3360352662927315  0.3382346857811408  0.1377483947963262   T   T   T
  0.4502800109992151  0.3748900000022317  0.0695599989999991   F   F   F
  0.3947300019975799  0.3082199989982470  0.0000000000000000   F   F   F
  0.5017588435225716  0.3360010433533751  0.1402742913910577   T   T   T
  0.6169499750021217  0.3748900000022317  0.0695599989999991   F   F   F
  0.5613999960017821  0.3082199989982470  0.0000000000000000   F   F   F
  0.6721126040164657  0.3383468992570351  0.1381552276173310   T   T   T
  0.7836199999987628  0.3748900000022317  0.0695599989999991   F   F   F
  0.7280600069989802  0.3082199989982470  0.0000000000000000   F   F   F
  0.8357502653696378  0.3363282146983127  0.1391886833420476   T   T   T
  0.9502800110024765  0.3748900000022317  0.0695599989999991   F   F   F
  0.8947299719995314  0.3082199989982470  0.0000000000000000   F   F   F
  0.0077820370131381  0.4425568663276497  0.1406332948983343   T   T   T
  0.1169499980046211  0.4748899940019484  0.0695599989999991   F   F   F
  0.0613999999967234  0.4082199929979637  0.0000000000000000   F   F   F
  0.1739970134967211  0.4428570960863018  0.1407514846941182   T   T   T
  0.2836200000030900  0.4748899940019484  0.0695599989999991   F   F   F
  0.2280600069967846  0.4082199929979637  0.0000000000000000   F   F   F
  0.3386446420362392  0.4406632159467844  0.1390427485606793   T   T   T
  0.4502800110002809  0.4748899940019484  0.0695599989999991   F   F   F
  0.3947300019986386  0.4082199929979637  0.0000000000000000   F   F   F
  0.5074401087881368  0.4427811430755565  0.1408660934256949   T   T   T
  0.6169499750031875  0.4748899940019484  0.0695599989999991   F   F   F
  0.5613999959963323  0.4082199929979637  0.0000000000000000   F   F   F
  0.6754298164254763  0.4434455330347241  0.1410161289734864   T   T   T
  0.7836199999998286  0.4748899940019484  0.0695599989999991   F   F   F
  0.7280600070000389  0.4082199929979637  0.0000000000000000   F   F   F
  0.8395220313746875  0.4408337802941152  0.1391353500971486   T   T   T
  0.9502800110035423  0.4748899940019484  0.0695599989999991   F   F   F
  0.8947299720005972  0.4082199929979637  0.0000000000000000   F   F   F
  0.0088767836149385  0.5421596427590840  0.1390506161795394   T   T   T
  0.1169499979965849  0.5748900179985768  0.0695599989999991   F   F   F
  0.0613999999989829  0.5082200169991040  0.0000000000000000   F   F   F
  0.1740349818201954  0.5433831507733788  0.1337736917576859   T   T   T
  0.2836200000015765  0.5748900179985768  0.0695599989999991   F   F   F
  0.2280600069990442  0.5082200169991040  0.0000000000000000   F   F   F
  0.3378749491804000  0.5422152441826800  0.1395132127912736   T   T   T
  0.4502800109987746  0.5748900179985768  0.0695599989999991   F   F   F
  0.3947300020008981  0.5082200169991040  0.0000000000000000   F   F   F
  0.5079037265548021  0.5423028983749584  0.1386492399464704   T   T   T
  0.6169499750016811  0.5748900179985768  0.0695599989999991   F   F   F
  0.5613999959985918  0.5082200169991040  0.0000000000000000   F   F   F
  0.6740728763616823  0.5434389135789511  0.1334831159210672   T   T   T
  0.7836199999983222  0.5748900179985768  0.0695599989999991   F   F   F
  0.7280600070022984  0.5082200169991040  0.0000000000000000   F   F   F
  0.8393986193601533  0.5428147340700499  0.1393251335129673   T   T   T
  0.9502800110020360  0.5748900179985768  0.0695599989999991   F   F   F
  0.8947299719963411  0.5082200169991040  0.0000000000000000   F   F   F
  0.0109443635398388  0.6465792668508892  0.1461305155784688   T   T   T
  0.1169499980002229  0.6748899820013747  0.0695599989999991   F   F   F
  0.0614000000026067  0.6082199810019020  0.0000000000000000   F   F   F
  0.1752329432095334  0.6439197389516110  0.1398471932363468   T   T   T
  0.2836199999986988  0.6748899820013747  0.0695599989999991   F   F   F
  0.2280600070026679  0.6082199810019020  0.0000000000000000   F   F   F
  0.3404264776760414  0.6435896741818778  0.1390871230283494   T   T   T
  0.4502800110024126  0.6748899820013747  0.0695599989999991   F   F   F
  0.3947300020045361  0.6082199810019020  0.0000000000000000   F   F   F
  0.5102569023893159  0.6462293849871955  0.1453343678425775   T   T   T
  0.6169499749987963  0.6748899820013747  0.0695599989999991   F   F   F
  0.5613999960022227  0.6082199810019020  0.0000000000000000   F   F   F
  0.6753940165374508  0.6437933392623499  0.1398372716082497   T   T   T
  0.7836200000019602  0.6748899820013747  0.0695599989999991   F   F   F
  0.7280600069994136  0.6082199810019020  0.0000000000000000   F   F   F
  0.8411187869104031  0.6437907351711493  0.1391515965510343   T   T   T
  0.9502800109991512  0.6748899820013747  0.0695599989999991   F   F   F
  0.8947299719999720  0.6082199810019020  0.0000000000000000   F   F   F
  0.0098993233237032  0.7456249580035690  0.1353720064830546   T   T   T
  0.1169499979987165  0.7748900059980031  0.0695599989999991   F   F   F
  0.0614000000011075  0.7082200049985374  0.0000000000000000   F   F   F
  0.1748253455956528  0.7456604126044840  0.1345222800614458   T   T   T
  0.2836199999971925  0.7748900059980031  0.0695599989999991   F   F   F
  0.2280600070011687  0.7082200049985374  0.0000000000000000   F   F   F
  0.3418603823268703  0.7441842935751692  0.1390836446390492   T   T   T
  0.4502800110009062  0.7748900059980031  0.0695599989999991   F   F   F
  0.3947300019965141  0.7082200049985374  0.0000000000000000   F   F   F
  0.5100606652542906  0.7455904953171711  0.1351200912821281   T   T   T
  0.6169499749972900  0.7748900059980031  0.0695599989999991   F   F   F
  0.5613999960007163  0.7082200049985374  0.0000000000000000   F   F   F
  0.6751591158448852  0.7456834579308739  0.1345338676628584   T   T   T
  0.7836200000004538  0.7748900059980031  0.0695599989999991   F   F   F
  0.7280600069979144  0.7082200049985374  0.0000000000000000   F   F   F
  0.8421060534966294  0.7444418288880662  0.1387141144719894   T   T   T
  0.9502800109976448  0.7748900059980031  0.0695599989999991   F   F   F
  0.8947299719984656  0.7082200049985374  0.0000000000000000   F   F   F
  0.0067503788318068  0.8425597839127130  0.1406164691344149   T   T   T
  0.1169499980036193  0.8748900290007597  0.0695599989999991   F   F   F
  0.0613999999968371  0.8082200289996777  0.0000000000000000   F   F   F
  0.1738180894684673  0.8431063474572185  0.1407498410145381   T   T   T
  0.2836200000020881  0.8748900290007597  0.0695599989999991   F   F   F
  0.2280600069969054  0.8082200289996777  0.0000000000000000   F   F   F
  0.3401603931594020  0.8426180169422189  0.1399723306913097   T   T   T
  0.4502800109992933  0.8748900290007597  0.0695599989999991   F   F   F
  0.3947300019987665  0.8082200289996777  0.0000000000000000   F   F   F
  0.5066458841035535  0.8425974377831446  0.1406342065928829   T   T   T
  0.6169499750021927  0.8748900290007597  0.0695599989999991   F   F   F
  0.5613999960029759  0.8082200289996777  0.0000000000000000   F   F   F
  0.6738107588286253  0.8431134845196802  0.1409009235302668   T   T   T
  0.7836199999988409  0.8748900290007597  0.0695599989999991   F   F   F
  0.7280600070001739  0.8082200289996777  0.0000000000000000   F   F   F
  0.8401688058667955  0.8425200097211415  0.1402861347641657   T   T   T
  0.9502800110025476  0.8748900290007597  0.0695599989999991   F   F   F
  0.8947299720007251  0.8082200289996777  0.0000000000000000   F   F   F
  0.0058074511024420  0.9413427497735634  0.1394719017941541   T   T   T
  0.1169499980046069  0.9748899940019484  0.0695599989999991   F   F   F
  0.0613999999967092  0.9082199929979637  0.0000000000000000   F   F   F
  0.1722637393138075  0.9415528438695924  0.1396465141142655   T   T   T
  0.2836200000030757  0.9748899940019484  0.0695599989999991   F   F   F
  0.2280600069967704  0.9082199929979637  0.0000000000000000   F   F   F
  0.3389797021421308  0.9413483133390745  0.1394937532142739   T   T   T
  0.4502800110002738  0.9748899940019484  0.0695599989999991   F   F   F
  0.3947300019986315  0.9082199929979637  0.0000000000000000   F   F   F
  0.5058234269579319  0.9413147006162317  0.1393513821049667   T   T   T
  0.6169499750031875  0.9748899940019484  0.0695599989999991   F   F   F
  0.5613999959963252  0.9082199929979637  0.0000000000000000   F   F   F
  0.6721442652435559  0.9413373758126640  0.1395729909691879   T   T   T
  0.7836199999998286  0.9748899940019484  0.0695599989999991   F   F   F
  0.7280600070000389  0.9082199929979637  0.0000000000000000   F   F   F
  0.8392359741106586  0.9413246182684410  0.1395656132662106   T   T   T
  0.9502800110035423  0.9748899940019484  0.0695599989999991   F   F   F
  0.8947299720005972  0.9082199929979637  0.0000000000000000   F   F   F
  0.2823335054691907  0.3723855699475140  0.1847083575562201   T   T   T
  0.5582822672961353  0.4014067522097690  0.1842167261249515   T   T   T
  0.7841349940468448  0.3725367102911165  0.1847435266865912   T   T   T
  0.0542532924856392  0.3975026407159406  0.1843634969870306   T   T   T
  0.1082291465915339  0.4604933282253747  0.2949821960472504   T   T   T
  0.2686333042120165  0.5017546588542839  0.1963493968513040   T   T   T
  0.3567740106802529  0.4583003533337107  0.2968039097364825   T   T   T
  0.5120130433469878  0.5004766100707684  0.1938334774233303   T   T   T
  0.6095961319260051  0.4611965332622744  0.2957424244555253   T   T   T
  0.7716845085102262  0.5016500503501800  0.1954452235847611   T   T   T
  0.8596270606452867  0.4595339855925434  0.2972093350174790   T   T   T
  0.0140523594439411  0.5007170499946001  0.1949780886236968   T   T   T
  0.1113390349549670  0.6039040161736845  0.3079449232741703   T   T   T
  0.2786817347308957  0.6701079592080506  0.1944877960109663   T   T   T
  0.1919167690031414  0.5637801992262842  0.4077284534815891   T   T   T
  0.3529786544102122  0.6038854148493844  0.3030718097517709   T   T   T
  0.5306597779082286  0.6661899581074009  0.2121319031040660   T   T   T
  0.4401659852459630  0.5676011081182132  0.4046641442944751   T   T   T
  0.6095791389535267  0.6041626582169916  0.3053880355302606   T   T   T
  0.7745640058589810  0.6664692936784063  0.1947123348700845   T   T   T
  0.6932516297087439  0.5654609328735842  0.4064167546501911   T   T   T
  0.8524975850498125  0.6061558178154240  0.3023199616755074   T   T   T
  0.0359602470540986  0.6668999468842278  0.2130850553899242   T   T   T
  0.9438981150553120  0.5702118263886199  0.4047538555291740   T   T   T
  0.1433469266738223  0.7733032150473662  0.3047194796253344   T   T   T
  0.1914312893585791  0.7172699425473379  0.4114208444770087   T   T   T
  0.4021676154045511  0.7730605084639314  0.3085343596809507   T   T   T
  0.4092009370017908  0.7028600822362979  0.4312621211106845   T   T   T
  0.6457879490368249  0.7763077902226517  0.3057837899362158   T   T   T
  0.6782466826983991  0.7055048858121971  0.4138550952446706   T   T   T
  0.9030117211452956  0.7764298516889733  0.3051976328285950   T   T   T
  0.9172925597251145  0.7058958569339252  0.4264623942862285   T   T   T
  0.1621707712249212  0.8774337324017664  0.3948193441588840   T   T   T
  0.3832195000125821  0.8650769159317915  0.4317158133153663   T   T   T
  0.6575977198061922  0.8791632083273956  0.3948463710000825   T   T   T
  0.8864720533641428  0.8657471285644462  0.4185586954311543   T   T   T
  0.3564172169426830  0.2731039632982636  0.2362181015547671   T   T   T
  0.5403062126101618  0.2755123206157580  0.2358065576366120   T   T   T
  0.2696860245855655  0.5016225906672902  0.3460310932614228   T   T   T
  0.1839305587774233  0.4015855997994064  0.2421210021281955   T   T   T
  0.5203048966236767  0.5001824750780760  0.3458118364290440   T   T   T
  0.4276787517950972  0.3958239403447811  0.2428808439746432   T   T   T
  0.7701840035603240  0.5032131595318706  0.3455690762722719   T   T   T
  0.6796710293102665  0.3972885466669662  0.2434612179030677   T   T   T
  0.0208137606330282  0.5002285495482754  0.3470418903451352   T   T   T
  0.9311321218209846  0.4010414678327733  0.2421628638312118   T   T   T
  0.0981925996771104  0.6053049860872143  0.4483241825612632   T   T   T
  0.2863091438078310  0.6607751623538332  0.3492505436209192   T   T   T
  0.1897089776521002  0.5606320842601052  0.2380356042640063   T   T   T
  0.3397875062699696  0.5940752613151897  0.4563418827108919   T   T   T
  0.5327127528624144  0.6603869131169361  0.3395704479390600   T   T   T
  0.4389964244691469  0.5565327368007327  0.2393590966879648   T   T   T
  0.5925521577792914  0.5995423904230937  0.4499779051007686   T   T   T
  0.7846129672937431  0.6643893585645079  0.3481303166529184   T   T   T
  0.6869336256975149  0.5567323398402190  0.2371761137993792   T   T   T
  0.8429158865002794  0.5978511597700656  0.4547793474707369   T   T   T
  0.0302936543884136  0.6606576561837670  0.3394457868027633   T   T   T
  0.9391086436041842  0.5569981791874272  0.2395718878709763   T   T   T
  0.1000758671166325  0.7740599455769618  0.4402417571883248   T   T   T
  0.3056058438997106  0.8120478233730016  0.3505229817041157   T   T   T
  0.2120230434261899  0.7374806950495436  0.2328081567500497   T   T   T
  0.3378402687399719  0.7617164940301433  0.4695829462177546   T   T   T
  0.5878716867534844  0.8514855274181869  0.3120774282132052   T   T   T
  0.4471392274749830  0.7238172992893550  0.2343319519665179   T   T   T
  0.5952394638001058  0.7708356993862285  0.4324346715523034   T   T   T
  0.8264796780537197  0.8341138860315386  0.3333837225960046   T   T   T
  0.7070809189547838  0.7320514396463867  0.2324332185507839   T   T   T
  0.8367442512815608  0.7637635081785733  0.4591054541738425   T   T   T
  0.0947586572599321  0.8502500810809953  0.3108846897068265   T   T   T
  0.9442796850112152  0.7203405718323083  0.2344467006605057   T   T   T
  0.0725878708413996  0.9281274452569752  0.4284252240565451   T   T   T
  0.3361825260638820  0.9442587278203750  0.4233718575933021   T   T   T
  0.5685455288060307  0.9247289709273893  0.4369318730043547   T   T   T
  0.8286407776915755  0.9400129800069844  0.4269339286247730   T   T   T
  0.3822678677460409  0.2577895861259712  0.2016962717799786   T   T   T
  0.4885397339450360  0.2593509738656438  0.2013132087284538   T   T   T
 
  0.00000000E+00  0.00000000E+00  0.00000000E+00
  0.00000000E+00  0.00000000E+00  0.00000000E+00
  0.00000000E+00  0.00000000E+00  0.00000000E+00
  0.00000000E+00  0.00000000E+00  0.00000000E+00
  0.00000000E+00  0.00000000E+00  0.00000000E+00
  0.00000000E+00  0.00000000E+00  0.00000000E+00
  0.00000000E+00  0.00000000E+00  0.00000000E+00
  0.00000000E+00  0.00000000E+00  0.00000000E+00
  0.00000000E+00  0.00000000E+00  0.00000000E+00
  0.00000000E+00  0.00000000E+00  0.00000000E+00
  0.00000000E+00  0.00000000E+00  0.00000000E+00
  0.00000000E+00  0.00000000E+00  0.00000000E+00
  0.00000000E+00  0.00000000E+00  0.00000000E+00
  0.00000000E+00  0.00000000E+00  0.00000000E+00
  0.00000000E+00  0.00000000E+00  0.00000000E+00
  0.00000000E+00  0.00000000E+00  0.00000000E+00
  0.00000000E+00  0.00000000E+00  0.00000000E+00
  0.00000000E+00  0.00000000E+00  0.00000000E+00
  0.00000000E+00  0.00000000E+00  0.00000000E+00
  0.00000000E+00  0.00000000E+00  0.00000000E+00
  0.00000000E+00  0.00000000E+00  0.00000000E+00
  0.00000000E+00  0.00000000E+00  0.00000000E+00
  0.00000000E+00  0.00000000E+00  0.00000000E+00
  0.00000000E+00  0.00000000E+00  0.00000000E+00
  0.00000000E+00  0.00000000E+00  0.00000000E+00
  0.00000000E+00  0.00000000E+00  0.00000000E+00
  0.00000000E+00  0.00000000E+00  0.00000000E+00
  0.00000000E+00  0.00000000E+00  0.00000000E+00
  0.00000000E+00  0.00000000E+00  0.00000000E+00
  0.00000000E+00  0.00000000E+00  0.00000000E+00
  0.00000000E+00  0.00000000E+00  0.00000000E+00
  0.00000000E+00  0.00000000E+00  0.00000000E+00
  0.00000000E+00  0.00000000E+00  0.00000000E+00
  0.00000000E+00  0.00000000E+00  0.00000000E+00
  0.00000000E+00  0.00000000E+00  0.00000000E+00
  0.00000000E+00  0.00000000E+00  0.00000000E+00
  0.00000000E+00  0.00000000E+00  0.00000000E+00
  0.00000000E+00  0.00000000E+00  0.00000000E+00
  0.00000000E+00  0.00000000E+00  0.00000000E+00
  0.00000000E+00  0.00000000E+00  0.00000000E+00
  0.00000000E+00  0.00000000E+00  0.00000000E+00
  0.00000000E+00  0.00000000E+00  0.00000000E+00
  0.00000000E+00  0.00000000E+00  0.00000000E+00
  0.00000000E+00  0.00000000E+00  0.00000000E+00
  0.00000000E+00  0.00000000E+00  0.00000000E+00
  0.00000000E+00  0.00000000E+00  0.00000000E+00
  0.00000000E+00  0.00000000E+00  0.00000000E+00
  0.00000000E+00  0.00000000E+00  0.00000000E+00
  0.00000000E+00  0.00000000E+00  0.00000000E+00
  0.00000000E+00  0.00000000E+00  0.00000000E+00
  0.00000000E+00  0.00000000E+00  0.00000000E+00
  0.00000000E+00  0.00000000E+00  0.00000000E+00
  0.00000000E+00  0.00000000E+00  0.00000000E+00
  0.00000000E+00  0.00000000E+00  0.00000000E+00
  0.00000000E+00  0.00000000E+00  0.00000000E+00
  0.00000000E+00  0.00000000E+00  0.00000000E+00
  0.00000000E+00  0.00000000E+00  0.00000000E+00
  0.00000000E+00  0.00000000E+00  0.00000000E+00
  0.00000000E+00  0.00000000E+00  0.00000000E+00
  0.00000000E+00  0.00000000E+00  0.00000000E+00
  0.00000000E+00  0.00000000E+00  0.00000000E+00
  0.00000000E+00  0.00000000E+00  0.00000000E+00
  0.00000000E+00  0.00000000E+00  0.00000000E+00
  0.00000000E+00  0.00000000E+00  0.00000000E+00
  0.00000000E+00  0.00000000E+00  0.00000000E+00
  0.00000000E+00  0.00000000E+00  0.00000000E+00
  0.00000000E+00  0.00000000E+00  0.00000000E+00
  0.00000000E+00  0.00000000E+00  0.00000000E+00
  0.00000000E+00  0.00000000E+00  0.00000000E+00
  0.00000000E+00  0.00000000E+00  0.00000000E+00
  0.00000000E+00  0.00000000E+00  0.00000000E+00
  0.00000000E+00  0.00000000E+00  0.00000000E+00
  0.00000000E+00  0.00000000E+00  0.00000000E+00
  0.00000000E+00  0.00000000E+00  0.00000000E+00
  0.00000000E+00  0.00000000E+00  0.00000000E+00
  0.00000000E+00  0.00000000E+00  0.00000000E+00
  0.00000000E+00  0.00000000E+00  0.00000000E+00
  0.00000000E+00  0.00000000E+00  0.00000000E+00
  0.00000000E+00  0.00000000E+00  0.00000000E+00
  0.00000000E+00  0.00000000E+00  0.00000000E+00
  0.00000000E+00  0.00000000E+00  0.00000000E+00
  0.00000000E+00  0.00000000E+00  0.00000000E+00
  0.00000000E+00  0.00000000E+00  0.00000000E+00
  0.00000000E+00  0.00000000E+00  0.00000000E+00
  0.00000000E+00  0.00000000E+00  0.00000000E+00
  0.00000000E+00  0.00000000E+00  0.00000000E+00
  0.00000000E+00  0.00000000E+00  0.00000000E+00
  0.00000000E+00  0.00000000E+00  0.00000000E+00
  0.00000000E+00  0.00000000E+00  0.00000000E+00
  0.00000000E+00  0.00000000E+00  0.00000000E+00
  0.00000000E+00  0.00000000E+00  0.00000000E+00
  0.00000000E+00  0.00000000E+00  0.00000000E+00
  0.00000000E+00  0.00000000E+00  0.00000000E+00
  0.00000000E+00  0.00000000E+00  0.00000000E+00
  0.00000000E+00  0.00000000E+00  0.00000000E+00
  0.00000000E+00  0.00000000E+00  0.00000000E+00
  0.00000000E+00  0.00000000E+00  0.00000000E+00
  0.00000000E+00  0.00000000E+00  0.00000000E+00
  0.00000000E+00  0.00000000E+00  0.00000000E+00
  0.00000000E+00  0.00000000E+00  0.00000000E+00
  0.00000000E+00  0.00000000E+00  0.00000000E+00
  0.00000000E+00  0.00000000E+00  0.00000000E+00
  0.00000000E+00  0.00000000E+00  0.00000000E+00
  0.00000000E+00  0.00000000E+00  0.00000000E+00
  0.00000000E+00  0.00000000E+00  0.00000000E+00
  0.00000000E+00  0.00000000E+00  0.00000000E+00
  0.00000000E+00  0.00000000E+00  0.00000000E+00
  0.00000000E+00  0.00000000E+00  0.00000000E+00
  0.00000000E+00  0.00000000E+00  0.00000000E+00
  0.00000000E+00  0.00000000E+00  0.00000000E+00
  0.00000000E+00  0.00000000E+00  0.00000000E+00
  0.00000000E+00  0.00000000E+00  0.00000000E+00
  0.00000000E+00  0.00000000E+00  0.00000000E+00
  0.00000000E+00  0.00000000E+00  0.00000000E+00
  0.00000000E+00  0.00000000E+00  0.00000000E+00
  0.00000000E+00  0.00000000E+00  0.00000000E+00
  0.00000000E+00  0.00000000E+00  0.00000000E+00
  0.00000000E+00  0.00000000E+00  0.00000000E+00
  0.00000000E+00  0.00000000E+00  0.00000000E+00
  0.00000000E+00  0.00000000E+00  0.00000000E+00
  0.00000000E+00  0.00000000E+00  0.00000000E+00
  0.00000000E+00  0.00000000E+00  0.00000000E+00
  0.00000000E+00  0.00000000E+00  0.00000000E+00
  0.00000000E+00  0.00000000E+00  0.00000000E+00
  0.00000000E+00  0.00000000E+00  0.00000000E+00
  0.00000000E+00  0.00000000E+00  0.00000000E+00
  0.00000000E+00  0.00000000E+00  0.00000000E+00
  0.00000000E+00  0.00000000E+00  0.00000000E+00
  0.00000000E+00  0.00000000E+00  0.00000000E+00
  0.00000000E+00  0.00000000E+00  0.00000000E+00
  0.00000000E+00  0.00000000E+00  0.00000000E+00
  0.00000000E+00  0.00000000E+00  0.00000000E+00
  0.00000000E+00  0.00000000E+00  0.00000000E+00
  0.00000000E+00  0.00000000E+00  0.00000000E+00
  0.00000000E+00  0.00000000E+00  0.00000000E+00
  0.00000000E+00  0.00000000E+00  0.00000000E+00
  0.00000000E+00  0.00000000E+00  0.00000000E+00
  0.00000000E+00  0.00000000E+00  0.00000000E+00
  0.00000000E+00  0.00000000E+00  0.00000000E+00
  0.00000000E+00  0.00000000E+00  0.00000000E+00
  0.00000000E+00  0.00000000E+00  0.00000000E+00
  0.00000000E+00  0.00000000E+00  0.00000000E+00
  0.00000000E+00  0.00000000E+00  0.00000000E+00
  0.00000000E+00  0.00000000E+00  0.00000000E+00
  0.00000000E+00  0.00000000E+00  0.00000000E+00
  0.00000000E+00  0.00000000E+00  0.00000000E+00
  0.00000000E+00  0.00000000E+00  0.00000000E+00
  0.00000000E+00  0.00000000E+00  0.00000000E+00
  0.00000000E+00  0.00000000E+00  0.00000000E+00
  0.00000000E+00  0.00000000E+00  0.00000000E+00
  0.00000000E+00  0.00000000E+00  0.00000000E+00
  0.00000000E+00  0.00000000E+00  0.00000000E+00
  0.00000000E+00  0.00000000E+00  0.00000000E+00
  0.00000000E+00  0.00000000E+00  0.00000000E+00
  0.00000000E+00  0.00000000E+00  0.00000000E+00
  0.00000000E+00  0.00000000E+00  0.00000000E+00
  0.00000000E+00  0.00000000E+00  0.00000000E+00
  0.00000000E+00  0.00000000E+00  0.00000000E+00
  0.00000000E+00  0.00000000E+00  0.00000000E+00
  0.00000000E+00  0.00000000E+00  0.00000000E+00
  0.00000000E+00  0.00000000E+00  0.00000000E+00
  0.00000000E+00  0.00000000E+00  0.00000000E+00
  0.00000000E+00  0.00000000E+00  0.00000000E+00
  0.00000000E+00  0.00000000E+00  0.00000000E+00
  0.00000000E+00  0.00000000E+00  0.00000000E+00
  0.00000000E+00  0.00000000E+00  0.00000000E+00
  0.00000000E+00  0.00000000E+00  0.00000000E+00
  0.00000000E+00  0.00000000E+00  0.00000000E+00
  0.00000000E+00  0.00000000E+00  0.00000000E+00
  0.00000000E+00  0.00000000E+00  0.00000000E+00
  0.00000000E+00  0.00000000E+00  0.00000000E+00
  0.00000000E+00  0.00000000E+00  0.00000000E+00
  0.00000000E+00  0.00000000E+00  0.00000000E+00
  0.00000000E+00  0.00000000E+00  0.00000000E+00
  0.00000000E+00  0.00000000E+00  0.00000000E+00
  0.00000000E+00  0.00000000E+00  0.00000000E+00
  0.00000000E+00  0.00000000E+00  0.00000000E+00
  0.00000000E+00  0.00000000E+00  0.00000000E+00
  0.00000000E+00  0.00000000E+00  0.00000000E+00
  0.00000000E+00  0.00000000E+00  0.00000000E+00
  0.00000000E+00  0.00000000E+00  0.00000000E+00
  0.00000000E+00  0.00000000E+00  0.00000000E+00
  0.00000000E+00  0.00000000E+00  0.00000000E+00
  0.00000000E+00  0.00000000E+00  0.00000000E+00
  0.00000000E+00  0.00000000E+00  0.00000000E+00
  0.00000000E+00  0.00000000E+00  0.00000000E+00
  0.00000000E+00  0.00000000E+00  0.00000000E+00
  0.00000000E+00  0.00000000E+00  0.00000000E+00
  0.00000000E+00  0.00000000E+00  0.00000000E+00
  0.00000000E+00  0.00000000E+00  0.00000000E+00
  0.00000000E+00  0.00000000E+00  0.00000000E+00
  0.00000000E+00  0.00000000E+00  0.00000000E+00
  0.00000000E+00  0.00000000E+00  0.00000000E+00
  0.00000000E+00  0.00000000E+00  0.00000000E+00
  0.00000000E+00  0.00000000E+00  0.00000000E+00
  0.00000000E+00  0.00000000E+00  0.00000000E+00
  0.00000000E+00  0.00000000E+00  0.00000000E+00
  0.00000000E+00  0.00000000E+00  0.00000000E+00
  0.00000000E+00  0.00000000E+00  0.00000000E+00
  0.00000000E+00  0.00000000E+00  0.00000000E+00
  0.00000000E+00  0.00000000E+00  0.00000000E+00
  0.00000000E+00  0.00000000E+00  0.00000000E+00
  0.00000000E+00  0.00000000E+00  0.00000000E+00
  0.00000000E+00  0.00000000E+00  0.00000000E+00
  0.00000000E+00  0.00000000E+00  0.00000000E+00
  0.00000000E+00  0.00000000E+00  0.00000000E+00
  0.00000000E+00  0.00000000E+00  0.00000000E+00
  0.00000000E+00  0.00000000E+00  0.00000000E+00
  0.00000000E+00  0.00000000E+00  0.00000000E+00
  0.00000000E+00  0.00000000E+00  0.00000000E+00
  0.00000000E+00  0.00000000E+00  0.00000000E+00
  0.00000000E+00  0.00000000E+00  0.00000000E+00
  0.00000000E+00  0.00000000E+00  0.00000000E+00
  0.00000000E+00  0.00000000E+00  0.00000000E+00
  0.00000000E+00  0.00000000E+00  0.00000000E+00
  0.00000000E+00  0.00000000E+00  0.00000000E+00
  0.00000000E+00  0.00000000E+00  0.00000000E+00
  0.00000000E+00  0.00000000E+00  0.00000000E+00
  0.00000000E+00  0.00000000E+00  0.00000000E+00
  0.00000000E+00  0.00000000E+00  0.00000000E+00
  0.00000000E+00  0.00000000E+00  0.00000000E+00
  0.00000000E+00  0.00000000E+00  0.00000000E+00
  0.00000000E+00  0.00000000E+00  0.00000000E+00