Cu  O   Ba  C                           
   1.00000000000000     
    15.3360004424999996    0.0000000000000000    0.0000000000000000
   -12.7799997330000004   22.1356088582000012    0.0000000000000000
     0.0000000000000000    0.0000000000000000   30.0000000000000000
   Cu   O    Ba   C 
   180    38    36     2
Selective dynamics
Direct
  0.0041775061472667  0.0400701510239651  0.1392639491807038   T   T   T
  0.1169499979978781  0.0748900030001138  0.0695599989999991   F   F   F
  0.0614000000017903  0.0082199999993477  0.0000000000000000   F   F   F
  0.1709081647193454  0.0401349428091090  0.1390812991577691   T   T   T
  0.2836200000028699  0.0748900030001138  0.0695599989999991   F   F   F
  0.2280600070018533  0.0082199999993477  0.0000000000000000   F   F   F
  0.3382865438185072  0.0403029143813961  0.1390670932608070   T   T   T
  0.4502800110000610  0.0748900030001138  0.0695599989999991   F   F   F
  0.3947300019971892  0.0082199999993477  0.0000000000000000   F   F   F
  0.5051238868713265  0.0405357202424203  0.1392008158392040   T   T   T
  0.6169499750029672  0.0748900030001138  0.0695599989999991   F   F   F
  0.5613999960014000  0.0082199999993477  0.0000000000000000   F   F   F
  0.6715986615824681  0.0404953254926804  0.1393740214314592   T   T   T
  0.7836199999996083  0.0748900030001138  0.0695599989999991   F   F   F
  0.7280600069986073  0.0082199999993477  0.0000000000000000   F   F   F
  0.8378685429619545  0.0402623469726027  0.1392785846031328   T   T   T
  0.9502800110033228  0.0748900030001138  0.0695599989999991   F   F   F
  0.8947299719991738  0.0082199999993477  0.0000000000000000   F   F   F
  0.0017977639702919  0.1384528695542438  0.1391839078358891   T   T   T
  0.1169499979989411  0.1748899969998306  0.0695599989999991   F   F   F
  0.0613999999979868  0.1082200040010477  0.0000000000000000   F   F   F
  0.1676623512748836  0.1377040379775382  0.1392672666583161   T   T   T
  0.2836199999974127  0.1748899969998306  0.0695599989999991   F   F   F
  0.2280600069980494  0.1082200040010477  0.0000000000000000   F   F   F
  0.3360777458765735  0.1379990511206585  0.1378852946667640   T   T   T
  0.4502800110011265  0.1748899969998306  0.0695599989999991   F   F   F
  0.3947300019999105  0.1082200040010477  0.0000000000000000   F   F   F
  0.5038775265159540  0.1384540730867786  0.1390981347683326   T   T   T
  0.6169499749975103  0.1748899969998306  0.0695599989999991   F   F   F
  0.5613999960041207  0.1082200040010477  0.0000000000000000   F   F   F
  0.6710283212569603  0.1389526212900144  0.1392069818921748   T   T   T
  0.7836200000006756  0.1748899969998306  0.0695599989999991   F   F   F
  0.7280600070013299  0.1082200040010477  0.0000000000000000   F   F   F
  0.8368948269811370  0.1391206260333279  0.1392105268125677   T   T   T
  0.9502800109978825  0.1748899969998306  0.0695599989999991   F   F   F
  0.8947299720018975  0.1082200040010477  0.0000000000000000   F   F   F
  0.0020037660695117  0.2375771763094836  0.1384653575678448   T   T   T
  0.1169499979987206  0.2748900059980031  0.0695599989999991   F   F   F
  0.0614000000011044  0.2082200049985374  0.0000000000000000   F   F   F
  0.1644795785573601  0.2361069203446347  0.1380156516672213   T   T   T
  0.2836199999971925  0.2748900059980031  0.0695599989999991   F   F   F
  0.2280600070011687  0.2082200049985374  0.0000000000000000   F   F   F
  0.3309478887797073  0.2367737677482609  0.1400288784136977   T   T   T
  0.4502800110009062  0.2748900059980031  0.0695599989999991   F   F   F
  0.3947300019965141  0.2082200049985374  0.0000000000000000   F   F   F
  0.5044846872273120  0.2377826142006538  0.1407141968865795   T   T   T
  0.6169499749972900  0.2748900059980031  0.0695599989999991   F   F   F
  0.5613999960007163  0.2082200049985374  0.0000000000000000   F   F   F
  0.6698747721989612  0.2365393932970299  0.1380089667719118   T   T   T
  0.7836200000004538  0.2748900059980031  0.0695599989999991   F   F   F
  0.7280600069979144  0.2082200049985374  0.0000000000000000   F   F   F
  0.8357793553527698  0.2375070987382674  0.1385008519818820   T   T   T
  0.9502800109976449  0.2748900059980031  0.0695599989999991   F   F   F
  0.8947299719984663  0.2082200049985374  0.0000000000000000   F   F   F
  0.0003794143485076  0.3348774533422334  0.1398118749384418   T   T   T
  0.1169499980035472  0.3748900000022318  0.0695599989999991   F   F   F
  0.0613999999956534  0.3082199989982471  0.0000000000000000   F   F   F
  0.1683439601373531  0.3363154329596051  0.1395494278571009   T   T   T
  0.2836200000020188  0.3748900000022318  0.0695599989999991   F   F   F
  0.2280600069957188  0.3082199989982471  0.0000000000000000   F   F   F
  0.3356976436097669  0.3384889338821180  0.1381891282947761   T   T   T
  0.4502800109992151  0.3748900000022318  0.0695599989999991   F   F   F
  0.3947300019975799  0.3082199989982471  0.0000000000000000   F   F   F
  0.5031457306219049  0.3385933827161394  0.1386980747870548   T   T   T
  0.6169499750021217  0.3748900000022318  0.0695599989999991   F   F   F
  0.5613999960017821  0.3082199989982471  0.0000000000000000   F   F   F
  0.6708909156678766  0.3381509646178284  0.1386854689186229   T   T   T
  0.7836199999987628  0.3748900000022318  0.0695599989999991   F   F   F
  0.7280600069989804  0.3082199989982471  0.0000000000000000   F   F   F
  0.8348142414198473  0.3362930900450126  0.1393954522542407   T   T   T
  0.9502800110024767  0.3748900000022318  0.0695599989999991   F   F   F
  0.8947299719995314  0.3082199989982471  0.0000000000000000   F   F   F
  0.0072259449622663  0.4428331829716660  0.1405095749706016   T   T   T
  0.1169499980046133  0.4748899940019485  0.0695599989999991   F   F   F
  0.0613999999967144  0.4082199929979637  0.0000000000000000   F   F   F
  0.1733869025457982  0.4429539288446829  0.1405376526633198   T   T   T
  0.2836200000030842  0.4748899940019485  0.0695599989999991   F   F   F
  0.2280600069967784  0.4082199929979637  0.0000000000000000   F   F   F
  0.3382177211796434  0.4406859564649095  0.1389011881912081   T   T   T
  0.4502800110002803  0.4748899940019485  0.0695599989999991   F   F   F
  0.3947300019986377  0.4082199929979637  0.0000000000000000   F   F   F
  0.5076051708432000  0.4437054898994001  0.1408852386853487   T   T   T
  0.6169499750031875  0.4748899940019485  0.0695599989999991   F   F   F
  0.5613999959963323  0.4082199929979637  0.0000000000000000   F   F   F
  0.6749560619953148  0.4439840479052958  0.1408796755783074   T   T   T
  0.7836199999998286  0.4748899940019485  0.0695599989999991   F   F   F
  0.7280600070000389  0.4082199929979637  0.0000000000000000   F   F   F
  0.8386613783958289  0.4405038607073491  0.1389722371326326   T   T   T
  0.9502800110035422  0.4748899940019485  0.0695599989999991   F   F   F
  0.8947299720005972  0.4082199929979637  0.0000000000000000   F   F   F
  0.0086915728848088  0.5423246993460876  0.1393596822400115   T   T   T
  0.1169499979965730  0.5748900179985768  0.0695599989999991   F   F   F
  0.0613999999989820  0.5082200169991040  0.0000000000000000   F   F   F
  0.1741091600484214  0.5436714837558676  0.1337906482826627   T   T   T
  0.2836200000015671  0.5748900179985768  0.0695599989999991   F   F   F
  0.2280600069990442  0.5082200169991040  0.0000000000000000   F   F   F
  0.3374512636967708  0.5422831817850653  0.1395025618465547   T   T   T
  0.4502800109987668  0.5748900179985768  0.0695599989999991   F   F   F
  0.3947300020008981  0.5082200169991040  0.0000000000000000   F   F   F
  0.5079440627622550  0.5426025797777821  0.1391720452293431   T   T   T
  0.6169499750016811  0.5748900179985768  0.0695599989999991   F   F   F
  0.5613999959985918  0.5082200169991040  0.0000000000000000   F   F   F
  0.6742786002094210  0.5438680318592876  0.1333629638558623   T   T   T
  0.7836199999983222  0.5748900179985768  0.0695599989999991   F   F   F
  0.7280600070022984  0.5082200169991040  0.0000000000000000   F   F   F
  0.8390783719857182  0.5428739025173669  0.1393890046238836   T   T   T
  0.9502800110020360  0.5748900179985768  0.0695599989999991   F   F   F
  0.8947299719963421  0.5082200169991040  0.0000000000000000   F   F   F
  0.0106213675982412  0.6468658674531114  0.1456475611936735   T   T   T
  0.1169499980002121  0.6748899820013748  0.0695599989999991   F   F   F
  0.0614000000025955  0.6082199810019020  0.0000000000000000   F   F   F
  0.1751496506516321  0.6441553486815172  0.1398130790527714   T   T   T
  0.2836199999986899  0.6748899820013748  0.0695599989999991   F   F   F
  0.2280600070026581  0.6082199810019020  0.0000000000000000   F   F   F
  0.3404173542150059  0.6439836464643091  0.1394251820294145   T   T   T
  0.4502800110024059  0.6748899820013748  0.0695599989999991   F   F   F
  0.3947300020045289  0.6082199810019020  0.0000000000000000   F   F   F
  0.5099620673497807  0.6464870934353276  0.1448864966753066   T   T   T
  0.6169499749987958  0.6748899820013748  0.0695599989999991   F   F   F
  0.5613999960022227  0.6082199810019020  0.0000000000000000   F   F   F
  0.6753138159490855  0.6440715444013037  0.1397718776070119   T   T   T
  0.7836200000019602  0.6748899820013748  0.0695599989999991   F   F   F
  0.7280600069994136  0.6082199810019020  0.0000000000000000   F   F   F
  0.8410216317699848  0.6441626523563019  0.1392720629647433   T   T   T
  0.9502800109991512  0.6748899820013748  0.0695599989999991   F   F   F
  0.8947299719999720  0.6082199810019020  0.0000000000000000   F   F   F
  0.0098097248703066  0.7456793433269127  0.1349005900453731   T   T   T
  0.1169499979987058  0.7748900059980031  0.0695599989999991   F   F   F
  0.0614000000011067  0.7082200049985374  0.0000000000000000   F   F   F
  0.1747506699034793  0.7456654063780132  0.1345227195972117   T   T   T
  0.2836199999971837  0.7748900059980031  0.0695599989999991   F   F   F
  0.2280600070011612  0.7082200049985374  0.0000000000000000   F   F   F
  0.3415213780065819  0.7442154532837525  0.1394582357105442   T   T   T
  0.4502800110008995  0.7748900059980031  0.0695599989999991   F   F   F
  0.3947300019965136  0.7082200049985374  0.0000000000000000   F   F   F
  0.5100934317792177  0.7457425994725990  0.1346598026249829   T   T   T
  0.6169499749972895  0.7748900059980031  0.0695599989999991   F   F   F
  0.5613999960007163  0.7082200049985374  0.0000000000000000   F   F   F
  0.6750580120385026  0.7457558524765834  0.1346775893846591   T   T   T
  0.7836200000004538  0.7748900059980031  0.0695599989999991   F   F   F
  0.7280600069979144  0.7082200049985374  0.0000000000000000   F   F   F
  0.8415974197123718  0.7444033809250149  0.1389777989368527   T   T   T
  0.9502800109976448  0.7748900059980031  0.0695599989999991   F   F   F
  0.8947299719984656  0.7082200049985374  0.0000000000000000   F   F   F
  0.0065813523373879  0.8426643647632305  0.1402835196956031   T   T   T
  0.1169499980036064  0.8748900290007599  0.0695599989999991   F   F   F
  0.0613999999968250  0.8082200289996777  0.0000000000000000   F   F   F
  0.1738524693931326  0.8432794524519296  0.1403347024560306   T   T   T
  0.2836200000020769  0.8748900290007599  0.0695599989999991   F   F   F
  0.2280600069968946  0.8082200289996777  0.0000000000000000   F   F   F
  0.3402186576951164  0.8427711759177751  0.1399902005974303   T   T   T
  0.4502800109992840  0.8748900290007599  0.0695599989999991   F   F   F
  0.3947300019987571  0.8082200289996777  0.0000000000000000   F   F   F
  0.5065581066201327  0.8427192443265790  0.1403540843976222   T   T   T
  0.6169499750021927  0.8748900290007599  0.0695599989999991   F   F   F
  0.5613999960029756  0.8082200289996777  0.0000000000000000   F   F   F
  0.6736756231463953  0.8432278975037629  0.1406635064580995   T   T   T
  0.7836199999988401  0.8748900290007599  0.0695599989999991   F   F   F
  0.7280600070001735  0.8082200289996777  0.0000000000000000   F   F   F
  0.8398668536402424  0.8425597020681507  0.1403883504403996   T   T   T
  0.9502800110025476  0.8748900290007599  0.0695599989999991   F   F   F
  0.8947299720007251  0.8082200289996777  0.0000000000000000   F   F   F
  0.0053702601840389  0.9412661688511449  0.1394943436181314   T   T   T
  0.1169499980045842  0.9748899940019486  0.0695599989999991   F   F   F
  0.0613999999966859  0.9082199929979637  0.0000000000000000   F   F   F
  0.1720933576233838  0.9414974581190475  0.1395447776948701   T   T   T
  0.2836200000030604  0.9748899940019486  0.0695599989999991   F   F   F
  0.2280600069967491  0.9082199929979637  0.0000000000000000   F   F   F
  0.3391685003124828  0.9414852686735434  0.1394536041941443   T   T   T
  0.4502800110002620  0.9748899940019486  0.0695599989999991   F   F   F
  0.3947300019986189  0.9082199929979637  0.0000000000000000   F   F   F
  0.5057894984417122  0.9414882521399924  0.1392847960192751   T   T   T
  0.6169499750031857  0.9748899940019486  0.0695599989999991   F   F   F
  0.5613999959963250  0.9082199929979637  0.0000000000000000   F   F   F
  0.6720982527265217  0.9415253002220213  0.1393433539420511   T   T   T
  0.7836199999998273  0.9748899940019486  0.0695599989999991   F   F   F
  0.7280600070000370  0.9082199929979637  0.0000000000000000   F   F   F
  0.8388776654835747  0.9412791295423353  0.1394842898497633   T   T   T
  0.9502800110035421  0.9748899940019486  0.0695599989999991   F   F   F
  0.8947299720005972  0.9082199929979637  0.0000000000000000   F   F   F
  0.2812471927558471  0.3728469846978179  0.1849960261608045   T   T   T
  0.5557052715548292  0.4008805451438391  0.1846720794385877   T   T   T
  0.7830388773703016  0.3726505557103767  0.1851959477589234   T   T   T
  0.0529786694399537  0.3980476854084216  0.1841048199442927   T   T   T
  0.1061396822058573  0.4625543769382316  0.2952875074266158   T   T   T
  0.2666799343536386  0.5030462413050659  0.1963382342376966   T   T   T
  0.3540907351703278  0.4602734761783774  0.2971102516807375   T   T   T
  0.5092845046484584  0.5016929973084210  0.1953234515387477   T   T   T
  0.6066178249932901  0.4630728648694765  0.2957316746072595   T   T   T
  0.7701086845378100  0.5029701090969897  0.1958573038442500   T   T   T
  0.8556700357408988  0.4607163406889462  0.2974883254621714   T   T   T
  0.0124204607030439  0.5018902526942260  0.1958408599151129   T   T   T
  0.1037863875955519  0.6051082150009200  0.3069763245377000   T   T   T
  0.2809994749217932  0.6730778603401284  0.1946657812805563   T   T   T
  0.1914105616215414  0.5685705744887161  0.4079694066324264   T   T   T
  0.3488704884533204  0.6044635967051976  0.3041793245678324   T   T   T
  0.5279809545164494  0.6684204979413835  0.2108036331121340   T   T   T
  0.4420295619452022  0.5695632559528320  0.4057481069034348   T   T   T
  0.6031458909434845  0.6063052801630063  0.3050286885430531   T   T   T
  0.7765762218322365  0.6687636954387419  0.1950880722674177   T   T   T
  0.6917708614455051  0.5679860663473604  0.4066222037468597   T   T   T
  0.8472972247937205  0.6055740711604095  0.3031401164947515   T   T   T
  0.0334350296728201  0.6683645676289216  0.2118386927245233   T   T   T
  0.9442605003676454  0.5712232406086627  0.4059803813260112   T   T   T
  0.1167074800629544  0.7727926240307356  0.3027505551826064   T   T   T
  0.1963072159737176  0.7248896460188107  0.4099605695755265   T   T   T
  0.3741433035085430  0.7715965350731748  0.3048422125431238   T   T   T
  0.4262108443193210  0.7083335266760175  0.4225885628273897   T   T   T
  0.6220851486735897  0.7764863642369019  0.3042566670900525   T   T   T
  0.6836482034009661  0.7104635662371550  0.4143374360528549   T   T   T
  0.8731929342279989  0.7744147116011177  0.3038438744577832   T   T   T
  0.9299489609714532  0.7086607314712634  0.4205074856096540   T   T   T
  0.1821515585827043  0.8741566623766516  0.4028825436488243   T   T   T
  0.4290100744100742  0.8725792824882285  0.4135691731589236   T   T   T
  0.6830571509035395  0.8756052208615865  0.4026513035966224   T   T   T
  0.9284779042770125  0.8743648502991241  0.4052699967518641   T   T   T
  0.3337262597335022  0.2684247617854628  0.2371509417183519   T   T   T
  0.5289114427139121  0.2757950131088294  0.2373145600610384   T   T   T
  0.2651267830444131  0.5026278246827710  0.3460671839306275   T   T   T
  0.1833739535918220  0.4032335975181737  0.2418653504634027   T   T   T
  0.5164958231386644  0.5031733531947356  0.3461408137018077   T   T   T
  0.4295463579155128  0.4009585099984818  0.2428727913963881   T   T   T
  0.7647473374175883  0.5032999226780299  0.3458645442944603   T   T   T
  0.6827788188419277  0.4020557356234497  0.2427991794550044   T   T   T
  0.0168893840137104  0.5025743270375432  0.3470653944767944   T   T   T
  0.9314853637333725  0.4029294833855629  0.2423033835672698   T   T   T
  0.0990272241012073  0.6082805914835089  0.4495654888360233   T   T   T
  0.2783470045055755  0.6627443015046378  0.3459246713221817   T   T   T
  0.1893762115511627  0.5627279087638041  0.2373323831522957   T   T   T
  0.3428892160761843  0.5995765929054194  0.4542021179821817   T   T   T
  0.5252982533735389  0.6633182699464074  0.3424220280557368   T   T   T
  0.4377347383847343  0.5599762147241830  0.2400528228033914   T   T   T
  0.5948029877807723  0.6028397845170155  0.4512768559280346   T   T   T
  0.7755637335444918  0.6640544832688521  0.3454115684843095   T   T   T
  0.6866189241292148  0.5591660060256299  0.2365831416671608   T   T   T
  0.8432951496050402  0.6006389665975095  0.4534904998778225   T   T   T
  0.0217154426394119  0.6620689118807774  0.3415630328949557   T   T   T
  0.9390019945837391  0.5596986668674876  0.2401516841999621   T   T   T
  0.1045602100299126  0.7722742552635417  0.4502934756329940   T   T   T
  0.2853973716136285  0.8179676714674522  0.3455341488993703   T   T   T
  0.2109968580663715  0.7377151227543665  0.2330729909999466   T   T   T
  0.3566841135559510  0.7699123071166386  0.4578459755568552   T   T   T
  0.5557875136181583  0.8422519488741098  0.3274503167869345   T   T   T
  0.4547852622863211  0.7318370132981102  0.2333789709669579   T   T   T
  0.6062534057261088  0.7705695474236677  0.4460255324408385   T   T   T
  0.8038364529133553  0.8378805840198194  0.3309617593681864   T   T   T
  0.7060456598995386  0.7313868757893803  0.2330718643278847   T   T   T
  0.8551171295900069  0.7707398372820603  0.4493703929148727   T   T   T
  0.0588809367572030  0.8419327378610179  0.3243371519015953   T   T   T
  0.9507476534608087  0.7267907559280130  0.2334831692836309   T   T   T
  0.1076602279160239  0.9366960227547457  0.4297395284847818   T   T   T
  0.3597283399056245  0.9401626100778815  0.4311420088845090   T   T   T
  0.6071480760664075  0.9345214187296791  0.4367482065729408   T   T   T
  0.8574680696543122  0.9375045076281976  0.4333271331412027   T   T   T
  0.3361676048106644  0.2538401653573589  0.1997840983368909   T   T   T
  0.5088599910364233  0.2592645602867196  0.1997179267140413   T   T   T
 
             NaN             NaN             NaN
             NaN             NaN             NaN
             NaN             NaN             NaN
             NaN             NaN             NaN
             NaN             NaN             NaN
             NaN             NaN             NaN
             NaN             NaN             NaN
             NaN             NaN             NaN
             NaN             NaN             NaN
             NaN             NaN             NaN
             NaN             NaN             NaN
             NaN             NaN             NaN
             NaN             NaN             NaN
             NaN             NaN             NaN
             NaN             NaN             NaN
             NaN             NaN             NaN
             NaN             NaN             NaN
             NaN             NaN             NaN
             NaN             NaN             NaN
             NaN             NaN             NaN
             NaN             NaN             NaN
             NaN             NaN             NaN
             NaN             NaN             NaN
             NaN             NaN             NaN
             NaN             NaN             NaN
             NaN             NaN             NaN
             NaN             NaN             NaN
             NaN             NaN             NaN
             NaN             NaN             NaN
             NaN             NaN             NaN
             NaN             NaN             NaN
             NaN             NaN             NaN
             NaN             NaN             NaN
             NaN             NaN             NaN
             NaN             NaN             NaN
             NaN             NaN             NaN
             NaN             NaN             NaN
             NaN             NaN             NaN
             NaN             NaN             NaN
             NaN             NaN             NaN
             NaN             NaN             NaN
             NaN             NaN             NaN
             NaN             NaN             NaN
             NaN             NaN             NaN
             NaN             NaN             NaN
             NaN             NaN             NaN
             NaN             NaN             NaN
             NaN             NaN             NaN
             NaN             NaN             NaN
             NaN             NaN             NaN
             NaN             NaN             NaN
             NaN             NaN             NaN
             NaN             NaN             NaN
             NaN             NaN             NaN
             NaN             NaN             NaN
             NaN             NaN             NaN
             NaN             NaN             NaN
             NaN             NaN             NaN
             NaN             NaN             NaN
             NaN             NaN             NaN
             NaN             NaN             NaN
             NaN             NaN             NaN
             NaN             NaN             NaN
             NaN             NaN             NaN
             NaN             NaN             NaN
             NaN             NaN             NaN
             NaN             NaN             NaN
             NaN             NaN             NaN
             NaN             NaN             NaN
             NaN             NaN             NaN
             NaN             NaN             NaN
             NaN             NaN             NaN
             NaN             NaN             NaN
             NaN             NaN             NaN
             NaN             NaN             NaN
             NaN             NaN             NaN
             NaN             NaN             NaN
             NaN             NaN             NaN
             NaN             NaN             NaN
             NaN             NaN             NaN
             NaN             NaN             NaN
             NaN             NaN             NaN
             NaN             NaN             NaN
             NaN             NaN             NaN
             NaN             NaN             NaN
             NaN             NaN             NaN
             NaN             NaN             NaN
             NaN             NaN             NaN
             NaN             NaN             NaN
             NaN             NaN             NaN
             NaN             NaN             NaN
             NaN             NaN             NaN
             NaN             NaN             NaN
             NaN             NaN             NaN
             NaN             NaN             NaN
             NaN             NaN             NaN
             NaN             NaN             NaN
             NaN             NaN             NaN
             NaN             NaN             NaN
             NaN             NaN             NaN
             NaN             NaN             NaN
             NaN             NaN             NaN
             NaN             NaN             NaN
             NaN             NaN             NaN
             NaN             NaN             NaN
             NaN             NaN             NaN
             NaN             NaN             NaN
             NaN             NaN             NaN
             NaN             NaN             NaN
             NaN             NaN             NaN
             NaN             NaN             NaN
             NaN             NaN             NaN
             NaN             NaN             NaN
             NaN             NaN             NaN
             NaN             NaN             NaN
             NaN             NaN             NaN
             NaN             NaN             NaN
             NaN             NaN             NaN
             NaN             NaN             NaN
             NaN             NaN             NaN
             NaN             NaN             NaN
             NaN             NaN             NaN
             NaN             NaN             NaN
             NaN             NaN             NaN
             NaN             NaN             NaN
             NaN             NaN             NaN
             NaN             NaN             NaN
             NaN             NaN             NaN
             NaN             NaN             NaN
             NaN             NaN             NaN
             NaN             NaN             NaN
             NaN             NaN             NaN
             NaN             NaN             NaN
             NaN             NaN             NaN
             NaN             NaN             NaN
             NaN             NaN             NaN
             NaN             NaN             NaN
             NaN             NaN             NaN
             NaN             NaN             NaN
             NaN             NaN             NaN
             NaN             NaN             NaN
             NaN             NaN             NaN
             NaN             NaN             NaN
             NaN             NaN             NaN
             NaN             NaN             NaN
             NaN             NaN             NaN
             NaN             NaN             NaN
             NaN             NaN             NaN
             NaN             NaN             NaN
             NaN             NaN             NaN
             NaN             NaN             NaN
             NaN             NaN             NaN
             NaN             NaN             NaN
             NaN             NaN             NaN
             NaN             NaN             NaN
             NaN             NaN             NaN
             NaN             NaN             NaN
             NaN             NaN             NaN
             NaN             NaN             NaN
             NaN             NaN             NaN
             NaN             NaN             NaN
             NaN             NaN             NaN
             NaN             NaN             NaN
             NaN             NaN             NaN
             NaN             NaN             NaN
             NaN             NaN             NaN
             NaN             NaN             NaN
             NaN             NaN             NaN
             NaN             NaN             NaN
             NaN             NaN             NaN
             NaN             NaN             NaN
             NaN             NaN             NaN
             NaN             NaN             NaN
             NaN             NaN             NaN
             NaN             NaN             NaN
             NaN             NaN             NaN
             NaN             NaN             NaN
             NaN             NaN             NaN
             NaN             NaN             NaN
             NaN             NaN             NaN
             NaN             NaN             NaN
             NaN             NaN             NaN
             NaN             NaN             NaN
             NaN             NaN             NaN
             NaN             NaN             NaN
             NaN             NaN             NaN
             NaN             NaN             NaN
             NaN             NaN             NaN
             NaN             NaN             NaN
             NaN             NaN             NaN
             NaN             NaN             NaN
             NaN             NaN             NaN
             NaN             NaN             NaN
             NaN             NaN             NaN
             NaN             NaN             NaN
             NaN             NaN             NaN
             NaN             NaN             NaN
             NaN             NaN             NaN
             NaN             NaN             NaN
             NaN             NaN             NaN
             NaN             NaN             NaN
             NaN             NaN             NaN
             NaN             NaN             NaN
             NaN             NaN             NaN
             NaN             NaN             NaN
             NaN             NaN             NaN
             NaN             NaN             NaN
             NaN             NaN             NaN
             NaN             NaN             NaN
             NaN             NaN             NaN
             NaN             NaN             NaN
             NaN             NaN             NaN
             NaN             NaN             NaN
             NaN             NaN             NaN
             NaN             NaN             NaN
             NaN             NaN             NaN
             NaN             NaN             NaN
             NaN             NaN             NaN
             NaN             NaN             NaN
             NaN             NaN             NaN
             NaN             NaN             NaN
             NaN             NaN             NaN
             NaN             NaN             NaN