Ba  O Cu                                
   1.00000000000000     
    15.6216000000000008    0.0000000000000000    0.0000000000000000
    -7.8107999999999969   13.5287024477589881    0.0000000000000000
     0.0000000000000000    0.0000000000000000   28.9718000000000018
   Ba   O    Cu
    48    48    54
Selective dynamics
Direct
  0.0884799999999970  0.1899500000000032  0.0000000000000000   F   F   F
  0.1718100000000007  0.1066199999999995  0.1100599999999972   F   F   F
  0.0035015214862176  0.0096905053258561  0.2266742185710799   T   T   T
  0.3384799999999970  0.1899500000000032  0.0000000000000000   F   F   F
  0.4218100000000007  0.1066100000000034  0.1100599999999972   F   F   F
  0.2555050550937131  0.0165909571476407  0.2324730413913937   T   T   T
  0.5884700000000009  0.1899500000000032  0.0000000000000000   F   F   F
  0.6718100000000007  0.1066100000000034  0.1100599999999972   F   F   F
  0.5033958597776585  0.0095078646266716  0.2265342566226879   T   T   T
  0.8384700000000009  0.1899500000000032  0.0000000000000000   F   F   F
  0.9218100000000007  0.1066199999999995  0.1100599999999972   F   F   F
  0.7555551867997294  0.0166746697763603  0.2322985466952135   T   T   T
  0.0884799999999970  0.4399500000000032  0.0000000000000000   F   F   F
  0.1718100000000007  0.3566199999999995  0.1100599999999972   F   F   F
  0.0062077088569774  0.2694838281253294  0.2213108298067162   T   T   T
  0.3384799999999970  0.4399500000000032  0.0000000000000000   F   F   F
  0.4218100000000007  0.3566199999999995  0.1100599999999972   F   F   F
  0.2520388534061590  0.2657568388813122  0.2194255290212391   T   T   T
  0.5884700000000009  0.4399500000000032  0.0000000000000000   F   F   F
  0.6718100000000007  0.3566199999999995  0.1100599999999972   F   F   F
  0.5061817608111532  0.2695036100619677  0.2212805837634525   T   T   T
  0.8384700000000009  0.4399500000000032  0.0000000000000000   F   F   F
  0.9218100000000007  0.3566100000000034  0.1100599999999972   F   F   F
  0.7520353741516876  0.2657324315304669  0.2194168214613403   T   T   T
  0.0884799999999970  0.6899500000000032  0.0000000000000000   F   F   F
  0.1718100000000007  0.6066199999999995  0.1100599999999972   F   F   F
  0.0038667915959987  0.5251235543199869  0.2226357076649852   T   T   T
  0.3384799999999970  0.6899500000000032  0.0000000000000000   F   F   F
  0.4218100000000007  0.6066100000000034  0.1100599999999972   F   F   F
  0.2545457485332286  0.5245541431595390  0.2215211819975366   T   T   T
  0.5884700000000009  0.6899500000000032  0.0000000000000000   F   F   F
  0.6718100000000007  0.6066100000000034  0.1100599999999972   F   F   F
  0.5039232031172771  0.5253015321962956  0.2225665103113160   T   T   T
  0.8384700000000009  0.6899500000000032  0.0000000000000000   F   F   F
  0.9218100000000007  0.6066199999999995  0.1100599999999972   F   F   F
  0.7545422763382041  0.5245250328567375  0.2215302401851264   T   T   T
  0.0884799999999970  0.9399500000000032  0.0000000000000000   F   F   F
  0.1718100000000007  0.8566199999999995  0.1100599999999972   F   F   F
 -0.0015281255143497  0.7599765409642681  0.2406354859421050   T   T   T
  0.3384799999999970  0.9399500000000032  0.0000000000000000   F   F   F
  0.4218100000000007  0.8566199999999995  0.1100599999999972   F   F   F
  0.2498885319210252  0.7652803203495289  0.2361566436432631   T   T   T
  0.5884700000000009  0.9399500000000032  0.0000000000000000   F   F   F
  0.6718100000000007  0.8566199999999995  0.1100599999999972   F   F   F
  0.4984021009801161  0.7600006957757440  0.2406155674960251   T   T   T
  0.8384700000000009  0.9399500000000032  0.0000000000000000   F   F   F
  0.9218100000000007  0.8566100000000034  0.1100599999999972   F   F   F
  0.7500197649441561  0.7654296482265750  0.2361009123127655   T   T   T
  0.0884799999999970  0.1899500000000032  0.1650899999999993   F   F   F
  0.1698395079359949  0.1214421220235827  0.2819682220107455   T   T   T
  0.0051399999999973  0.0232799999999997  0.0550300000000021   F   F   F
  0.3384799999999970  0.1899500000000032  0.1650899999999993   F   F   F
  0.4631666936012313  0.1259419300671534  0.2813352671554176   T   T   T
  0.2551399999999973  0.0232799999999997  0.0550300000000021   F   F   F
  0.5884700000000009  0.1899500000000032  0.1650899999999993   F   F   F
  0.6696984078384016  0.1214565386018535  0.2820098707074034   T   T   T
  0.5051399999999973  0.0232799999999997  0.0550300000000021   F   F   F
  0.8384700000000009  0.1899500000000032  0.1650899999999993   F   F   F
  0.9636835434956326  0.1259505651477721  0.2814091534618750   T   T   T
  0.7551399999999973  0.0232799999999997  0.0550300000000021   F   F   F
  0.0884799999999970  0.4399500000000032  0.1650899999999993   F   F   F
  0.1801164997926130  0.3524444897441519  0.2736912666387316   T   T   T
  0.0051399999999973  0.2732799999999997  0.0550300000000021   F   F   F
  0.3384799999999970  0.4399500000000032  0.1650899999999993   F   F   F
  0.4189280760769798  0.3527641005073773  0.2617983516735553   T   T   T
  0.2551399999999973  0.2732799999999997  0.0550300000000021   F   F   F
  0.5884700000000009  0.4399500000000032  0.1650899999999993   F   F   F
  0.6801615882710220  0.3522683445389945  0.2736718208600551   T   T   T
  0.5051399999999973  0.2732799999999997  0.0550300000000021   F   F   F
  0.8384700000000009  0.4399500000000032  0.1650899999999993   F   F   F
  0.9187771212673881  0.3524827520645247  0.2619099013764961   T   T   T
  0.7551399999999973  0.2732799999999997  0.0550300000000021   F   F   F
  0.0884799999999970  0.6899500000000032  0.1650899999999993   F   F   F
  0.1597462792796975  0.5827244016904285  0.2762166540886813   T   T   T
  0.0051399999999973  0.5232799999999997  0.0550300000000021   F   F   F
  0.3384799999999970  0.6899500000000032  0.1650899999999993   F   F   F
  0.3935464864708844  0.5758364048727845  0.2890063820517040   T   T   T
  0.2551399999999973  0.5232799999999997  0.0550300000000021   F   F   F
  0.5884700000000009  0.6899500000000032  0.1650899999999993   F   F   F
  0.6596494092735816  0.5827214177617270  0.2760822509800026   T   T   T
  0.5051399999999973  0.5232799999999997  0.0550300000000021   F   F   F
  0.8384700000000009  0.6899500000000032  0.1650899999999993   F   F   F
  0.8934905546135554  0.5755091446256826  0.2890390720424295   T   T   T
  0.7551399999999973  0.5232799999999997  0.0550300000000021   F   F   F
  0.0884799999999970  0.9399500000000032  0.1650899999999993   F   F   F
  0.1702112854022512  0.8573499275632235  0.2628283611597183   T   T   T
  0.0051399999999973  0.7732799999999997  0.0550300000000021   F   F   F
  0.3384799999999970  0.9399500000000032  0.1650899999999993   F   F   F
  0.4198414811013398  0.8519289726563366  0.2626954120702131   T   T   T
  0.2551399999999973  0.7732799999999997  0.0550300000000021   F   F   F
  0.5884700000000009  0.9399500000000032  0.1650899999999993   F   F   F
  0.6701796395161752  0.8574399993934279  0.2627033604252216   T   T   T
  0.5051399999999973  0.7732799999999997  0.0550300000000021   F   F   F
  0.8384700000000009  0.9399500000000032  0.1650899999999993   F   F   F
  0.9199739533584796  0.8519632733830850  0.2626761360207129   T   T   T
  0.7551399999999973  0.7732799999999997  0.0550300000000021   F   F   F
  0.0551955692588077  0.2527125426114412  0.4707524345496146   T   T   T
  0.0859623371633450  0.1591317351603923  0.3199219519515993   T   T   T
  0.9948037460959303  0.1317706152184404  0.3985152578762594   T   T   T
  0.2225522650871702  0.2529009058184376  0.4706022010689638   T   T   T
  0.2621498925277817  0.1760555254279067  0.3293042453451155   T   T   T
  0.1575226753782297  0.1304040589011554  0.3984227910589808   T   T   T
  0.3890402505208216  0.2532897911906463  0.4719036758908818   T   T   T
  0.4286516089517479  0.1767317448706234  0.3306453514374382   T   T   T
  0.3274917613381970  0.1357243720248870  0.3998005125893908   T   T   T
  0.5550455540089586  0.2526698036297930  0.4708143132452380   T   T   T
  0.5859280510569339  0.1592620400165884  0.3199776445975624   T   T   T
  0.4947588410202208  0.1317694353109102  0.3984164759463132   T   T   T
  0.7228070962737492  0.2535310780946333  0.4707348235049796   T   T   T
  0.7620408721630350  0.1761690303015229  0.3293757149358417   T   T   T
  0.6575832402801097  0.1306593371287300  0.3985065849752272   T   T   T
  0.8894080815724121  0.2539020951425168  0.4719755602752543   T   T   T
  0.9290481805896614  0.1767800408692901  0.3307098284097787   T   T   T
  0.8278290775327449  0.1361623794117086  0.3997989211046585   T   T   T
  0.0521996542784903  0.4095076775444235  0.4668867106913633   T   T   T
  0.1053249960866835  0.3517090485141272  0.3261662320813655   T   T   T
  0.9934573812708416  0.2961794828728904  0.3955078782956209   T   T   T
  0.2166269056005740  0.4076180757930429  0.4661864420448940   T   T   T
  0.2675721734435476  0.3520508212168705  0.3236870764911415   T   T   T
  0.1568260729336010  0.2887672767846707  0.3935869539164171   T   T   T
  0.3842032306828111  0.4090460166687592  0.4662838215237414   T   T   T
  0.4349446382316678  0.3494429160695435  0.3250130397093540   T   T   T
  0.3258724727291558  0.2957305859818141  0.3947056986705768   T   T   T
  0.5517313908212103  0.4092222032358493  0.4667597022498021   T   T   T
  0.6052376934000065  0.3515800302999194  0.3261544642974317   T   T   T
  0.4932741575124012  0.2960066440308772  0.3954714885539043   T   T   T
  0.7163726225004285  0.4078741080137950  0.4662163059260351   T   T   T
  0.7674989295030060  0.3517509656125027  0.3237442783149491   T   T   T
  0.6567905613709346  0.2889504699260913  0.3937173756778699   T   T   T
  0.8844308801734209  0.4095663223472910  0.4665480781007494   T   T   T
  0.9351012801772985  0.3494389618612776  0.3251346835415317   T   T   T
  0.8260478131963604  0.2959671197587285  0.3948322383696697   T   T   T
  0.0601937459908626  0.0979766904050613  0.4690563022640502   T   T   T
  0.1068066863793415  0.5130047976967982  0.3287443084557808   T   T   T
  0.9932920766527765  0.4568995789388863  0.3975257070989627   T   T   T
  0.2271796737856667  0.0987588657304408  0.4692936102127076   T   T   T
  0.2802792297799799  0.5273638573553761  0.3311166225389718   T   T   T
  0.1590176588555593  0.4574224867700943  0.3977062050075147   T   T   T
  0.3947885218232421  0.0991643293530897  0.4691502991514260   T   T   T
  0.4349369725771659  0.5127933586429232  0.3313921122771454   T   T   T
  0.3233262458465916  0.4551662704431482  0.3982294255210079   T   T   T
  0.5605510483071996  0.0984255102648902  0.4691060065122709   T   T   T
  0.6069063344221184  0.5129050149630058  0.3285501288244282   T   T   T
  0.4931849975465543  0.4567560239742733  0.3972732397486906   T   T   T
  0.7275866806916160  0.0995391860972350  0.4693444088637773   T   T   T
  0.7802074915379192  0.5269082827377313  0.3311094478800746   T   T   T
  0.6588719918867858  0.4573996411541498  0.3976354405756348   T   T   T
  0.8947679260627841  0.0994643209458211  0.4692269904377510   T   T   T
  0.9349599570926591  0.5127585500766360  0.3315620866043922   T   T   T
  0.8231995931223668  0.4549759600306533  0.3983475125634816   T   T   T
 
  0.00000000E+00  0.00000000E+00  0.00000000E+00
  0.00000000E+00  0.00000000E+00  0.00000000E+00
  0.00000000E+00  0.00000000E+00  0.00000000E+00
  0.00000000E+00  0.00000000E+00  0.00000000E+00
  0.00000000E+00  0.00000000E+00  0.00000000E+00
  0.00000000E+00  0.00000000E+00  0.00000000E+00
  0.00000000E+00  0.00000000E+00  0.00000000E+00
  0.00000000E+00  0.00000000E+00  0.00000000E+00
  0.00000000E+00  0.00000000E+00  0.00000000E+00
  0.00000000E+00  0.00000000E+00  0.00000000E+00
  0.00000000E+00  0.00000000E+00  0.00000000E+00
  0.00000000E+00  0.00000000E+00  0.00000000E+00
  0.00000000E+00  0.00000000E+00  0.00000000E+00
  0.00000000E+00  0.00000000E+00  0.00000000E+00
  0.00000000E+00  0.00000000E+00  0.00000000E+00
  0.00000000E+00  0.00000000E+00  0.00000000E+00
  0.00000000E+00  0.00000000E+00  0.00000000E+00
  0.00000000E+00  0.00000000E+00  0.00000000E+00
  0.00000000E+00  0.00000000E+00  0.00000000E+00
  0.00000000E+00  0.00000000E+00  0.00000000E+00
  0.00000000E+00  0.00000000E+00  0.00000000E+00
  0.00000000E+00  0.00000000E+00  0.00000000E+00
  0.00000000E+00  0.00000000E+00  0.00000000E+00
  0.00000000E+00  0.00000000E+00  0.00000000E+00
  0.00000000E+00  0.00000000E+00  0.00000000E+00
  0.00000000E+00  0.00000000E+00  0.00000000E+00
  0.00000000E+00  0.00000000E+00  0.00000000E+00
  0.00000000E+00  0.00000000E+00  0.00000000E+00
  0.00000000E+00  0.00000000E+00  0.00000000E+00
  0.00000000E+00  0.00000000E+00  0.00000000E+00
  0.00000000E+00  0.00000000E+00  0.00000000E+00
  0.00000000E+00  0.00000000E+00  0.00000000E+00
  0.00000000E+00  0.00000000E+00  0.00000000E+00
  0.00000000E+00  0.00000000E+00  0.00000000E+00
  0.00000000E+00  0.00000000E+00  0.00000000E+00
  0.00000000E+00  0.00000000E+00  0.00000000E+00
  0.00000000E+00  0.00000000E+00  0.00000000E+00
  0.00000000E+00  0.00000000E+00  0.00000000E+00
  0.00000000E+00  0.00000000E+00  0.00000000E+00
  0.00000000E+00  0.00000000E+00  0.00000000E+00
  0.00000000E+00  0.00000000E+00  0.00000000E+00
  0.00000000E+00  0.00000000E+00  0.00000000E+00
  0.00000000E+00  0.00000000E+00  0.00000000E+00
  0.00000000E+00  0.00000000E+00  0.00000000E+00
  0.00000000E+00  0.00000000E+00  0.00000000E+00
  0.00000000E+00  0.00000000E+00  0.00000000E+00
  0.00000000E+00  0.00000000E+00  0.00000000E+00
  0.00000000E+00  0.00000000E+00  0.00000000E+00
  0.00000000E+00  0.00000000E+00  0.00000000E+00
  0.00000000E+00  0.00000000E+00  0.00000000E+00
  0.00000000E+00  0.00000000E+00  0.00000000E+00
  0.00000000E+00  0.00000000E+00  0.00000000E+00
  0.00000000E+00  0.00000000E+00  0.00000000E+00
  0.00000000E+00  0.00000000E+00  0.00000000E+00
  0.00000000E+00  0.00000000E+00  0.00000000E+00
  0.00000000E+00  0.00000000E+00  0.00000000E+00
  0.00000000E+00  0.00000000E+00  0.00000000E+00
  0.00000000E+00  0.00000000E+00  0.00000000E+00
  0.00000000E+00  0.00000000E+00  0.00000000E+00
  0.00000000E+00  0.00000000E+00  0.00000000E+00
  0.00000000E+00  0.00000000E+00  0.00000000E+00
  0.00000000E+00  0.00000000E+00  0.00000000E+00
  0.00000000E+00  0.00000000E+00  0.00000000E+00
  0.00000000E+00  0.00000000E+00  0.00000000E+00
  0.00000000E+00  0.00000000E+00  0.00000000E+00
  0.00000000E+00  0.00000000E+00  0.00000000E+00
  0.00000000E+00  0.00000000E+00  0.00000000E+00
  0.00000000E+00  0.00000000E+00  0.00000000E+00
  0.00000000E+00  0.00000000E+00  0.00000000E+00
  0.00000000E+00  0.00000000E+00  0.00000000E+00
  0.00000000E+00  0.00000000E+00  0.00000000E+00
  0.00000000E+00  0.00000000E+00  0.00000000E+00
  0.00000000E+00  0.00000000E+00  0.00000000E+00
  0.00000000E+00  0.00000000E+00  0.00000000E+00
  0.00000000E+00  0.00000000E+00  0.00000000E+00
  0.00000000E+00  0.00000000E+00  0.00000000E+00
  0.00000000E+00  0.00000000E+00  0.00000000E+00
  0.00000000E+00  0.00000000E+00  0.00000000E+00
  0.00000000E+00  0.00000000E+00  0.00000000E+00
  0.00000000E+00  0.00000000E+00  0.00000000E+00
  0.00000000E+00  0.00000000E+00  0.00000000E+00
  0.00000000E+00  0.00000000E+00  0.00000000E+00
  0.00000000E+00  0.00000000E+00  0.00000000E+00
  0.00000000E+00  0.00000000E+00  0.00000000E+00
  0.00000000E+00  0.00000000E+00  0.00000000E+00
  0.00000000E+00  0.00000000E+00  0.00000000E+00
  0.00000000E+00  0.00000000E+00  0.00000000E+00
  0.00000000E+00  0.00000000E+00  0.00000000E+00
  0.00000000E+00  0.00000000E+00  0.00000000E+00
  0.00000000E+00  0.00000000E+00  0.00000000E+00
  0.00000000E+00  0.00000000E+00  0.00000000E+00
  0.00000000E+00  0.00000000E+00  0.00000000E+00
  0.00000000E+00  0.00000000E+00  0.00000000E+00
  0.00000000E+00  0.00000000E+00  0.00000000E+00
  0.00000000E+00  0.00000000E+00  0.00000000E+00
  0.00000000E+00  0.00000000E+00  0.00000000E+00
  0.00000000E+00  0.00000000E+00  0.00000000E+00
  0.00000000E+00  0.00000000E+00  0.00000000E+00
  0.00000000E+00  0.00000000E+00  0.00000000E+00
  0.00000000E+00  0.00000000E+00  0.00000000E+00
  0.00000000E+00  0.00000000E+00  0.00000000E+00
  0.00000000E+00  0.00000000E+00  0.00000000E+00
  0.00000000E+00  0.00000000E+00  0.00000000E+00
  0.00000000E+00  0.00000000E+00  0.00000000E+00
  0.00000000E+00  0.00000000E+00  0.00000000E+00
  0.00000000E+00  0.00000000E+00  0.00000000E+00
  0.00000000E+00  0.00000000E+00  0.00000000E+00
  0.00000000E+00  0.00000000E+00  0.00000000E+00
  0.00000000E+00  0.00000000E+00  0.00000000E+00
  0.00000000E+00  0.00000000E+00  0.00000000E+00
  0.00000000E+00  0.00000000E+00  0.00000000E+00
  0.00000000E+00  0.00000000E+00  0.00000000E+00
  0.00000000E+00  0.00000000E+00  0.00000000E+00
  0.00000000E+00  0.00000000E+00  0.00000000E+00
  0.00000000E+00  0.00000000E+00  0.00000000E+00
  0.00000000E+00  0.00000000E+00  0.00000000E+00
  0.00000000E+00  0.00000000E+00  0.00000000E+00
  0.00000000E+00  0.00000000E+00  0.00000000E+00
  0.00000000E+00  0.00000000E+00  0.00000000E+00
  0.00000000E+00  0.00000000E+00  0.00000000E+00
  0.00000000E+00  0.00000000E+00  0.00000000E+00
  0.00000000E+00  0.00000000E+00  0.00000000E+00
  0.00000000E+00  0.00000000E+00  0.00000000E+00
  0.00000000E+00  0.00000000E+00  0.00000000E+00
  0.00000000E+00  0.00000000E+00  0.00000000E+00
  0.00000000E+00  0.00000000E+00  0.00000000E+00
  0.00000000E+00  0.00000000E+00  0.00000000E+00
  0.00000000E+00  0.00000000E+00  0.00000000E+00
  0.00000000E+00  0.00000000E+00  0.00000000E+00
  0.00000000E+00  0.00000000E+00  0.00000000E+00
  0.00000000E+00  0.00000000E+00  0.00000000E+00
  0.00000000E+00  0.00000000E+00  0.00000000E+00
  0.00000000E+00  0.00000000E+00  0.00000000E+00
  0.00000000E+00  0.00000000E+00  0.00000000E+00
  0.00000000E+00  0.00000000E+00  0.00000000E+00
  0.00000000E+00  0.00000000E+00  0.00000000E+00
  0.00000000E+00  0.00000000E+00  0.00000000E+00
  0.00000000E+00  0.00000000E+00  0.00000000E+00
  0.00000000E+00  0.00000000E+00  0.00000000E+00
  0.00000000E+00  0.00000000E+00  0.00000000E+00
  0.00000000E+00  0.00000000E+00  0.00000000E+00
  0.00000000E+00  0.00000000E+00  0.00000000E+00
  0.00000000E+00  0.00000000E+00  0.00000000E+00
  0.00000000E+00  0.00000000E+00  0.00000000E+00
  0.00000000E+00  0.00000000E+00  0.00000000E+00
  0.00000000E+00  0.00000000E+00  0.00000000E+00
  0.00000000E+00  0.00000000E+00  0.00000000E+00
  0.00000000E+00  0.00000000E+00  0.00000000E+00
  0.00000000E+00  0.00000000E+00  0.00000000E+00
  0.00000000E+00  0.00000000E+00  0.00000000E+00
